 vasp.6.4.3 19Mar24 (build Nov 18 2024 14:48:31) complex                        
  
 executed on             LinuxIFC date 2026.08.04  13:33:53
 running   32 mpi-ranks, on    1 nodes
 distrk:  each k-point on   32 cores,    1 groups
 distr:  one band on NCORE=   4 cores,    8 groups


--------------------------------------------------------------------------------------------------------


 INCAR:
   SYSTEM = Zr63Nb1-singlepoint
   PREC = Accurate
   ISTART = 0
   ICHARG = 2
   ISPIN = 1
   LASPH = T
   NCORE = 4
   KSPACING = 0.35
   KGAMMA = True
   ENCUT = 480
   NELM = 200
   NELMIN = 4
   EDIFF = 1E-05
   LREAL = F
   LMIXTAU = True
   LMAXMIX = 4
   EDIFFG = -0.01
   NSW = 0
   IBRION = 2
   ISIF = 2
   ISYM = 0
   ISMEAR = 0
   SIGMA = 0.05
   LWAVE = F
   LCHARG = F
   LVTOT = T
   LVHAR = F
   LELF = F
   LAECHG = False
   LORBIT = 11
   IVDW = 12

 POTCAR:    PAW_PBE Zr_sv 04Jan2005               
 POTCAR:    PAW_PBE Nb_sv 25May2007               
 WARNING: For LVTOT=.TRUE., VASP.5.x writes the TOTAL local potential to the
     file LOCPOT. If you want only the Hartree contributions, use LVHAR=.TRUE.
     instead. 

 POTCAR:    PAW_PBE Zr_sv 04Jan2005               
   SHA256 =  25aed69cb10325f9d37c5c68912b61a17387d1f8e4f1d804860ffa10c8a4bf76 Zr_sv/POTCAR          
   COPYR  = (c) Copyright 04Jan2005 Georg Kresse                                                    
   COPYR  = This file is part of the software VASP. Any use, copying, and all other rights are regul
   COPYR  = If you do not have a valid VASP license, you may not use, copy or distribute this file. 
   VRHFIN =Zr: 4s4p5s4d                                                                             
   LEXCH  = PE                                                                                      
   EATOM  =  1284.2219 eV,   94.3876 Ry                                                             
                                                                                                    
   TITEL  = PAW_PBE Zr_sv 04Jan2005                                                                 
   LULTRA =        F    use ultrasoft PP ?                                                          
   IUNSCR =        1    unscreen: 0-lin 1-nonlin 2-no                                               
   RPACOR =    2.200    partial core radius                                                         
   POMASS =   91.224; ZVAL   =   12.000    mass and valenz                                          
   RCORE  =    2.500    outmost cutoff radius                                                       
   RWIGS  =    3.070; RWIGS  =    1.625    wigner-seitz radius (au A)                               
   ENMAX  =  229.898; ENMIN  =  172.424 eV                                                          
   ICORE  =        3    local potential                                                             
   LCOR   =        T    correct aug charges                                                         
   LPAW   =        T    paw PP                                                                      
   EAUG   =  461.257                                                                                
   DEXC   =    0.000                                                                                
   RMAX   =    2.561    core radius for proj-oper                                                   
   RAUG   =    1.300    factor for augmentation sphere                                              
   RDEP   =    2.597    radius for radial grids                                                     
   RDEPT  =    2.007    core radius for aug-charge                                                  
                                                                                                    
   Atomic configuration                                                                             
   11 entries                                                                                       
     n  l   j            E        occ.                                                              
     1  0  0.50    -17820.0161   2.0000                                                             
     2  0  0.50     -2467.0882   2.0000                                                             
     2  1  1.50     -2199.6095   6.0000                                                             
     3  0  0.50      -402.4863   2.0000                                                             
     3  1  1.50      -315.3675   6.0000                                                             
     3  2  2.50      -172.4472  10.0000                                                             
     4  0  0.50       -52.4146   2.0000                                                             
     5  0  0.50        -3.8421   1.0000                                                             
     4  1  1.50       -30.5054   6.0000                                                             
     4  2  2.50        -2.3341   3.0000                                                             
     4  3  2.50        -1.3606   0.0000                                                             
   Description                                                                                      
     l       E           TYP  RCUT    TYP  RCUT                                                     
     0    -52.4145962     23  2.200                                                                 
     0     -3.8421270     23  2.500                                                                 
     1    -30.5053914     23  2.200                                                                 
     1     20.4087390     23  2.200                                                                 
     2     -2.3340816     23  2.500                                                                 
     2     -0.6120942     23  2.500                                                                 
     3     -4.0817478     23  2.500                                                                 
  local pseudopotential read in
  partial core-charges read in
  partial kinetic energy density read in
  atomic valenz-charges read in
  non local Contribution for L=           0  read in
    real space projection operators read in
  non local Contribution for L=           0  read in
    real space projection operators read in
  non local Contribution for L=           1  read in
    real space projection operators read in
  non local Contribution for L=           1  read in
    real space projection operators read in
  non local Contribution for L=           2  read in
    real space projection operators read in
  non local Contribution for L=           2  read in
    real space projection operators read in
    PAW grid and wavefunctions read in
 
   number of l-projection  operators is LMAX  =           6
   number of lm-projection operators is LMMAX =          18
 
 POTCAR:    PAW_PBE Nb_sv 25May2007               
   SHA256 =  0e8fc07c9fcd1164cf2ade22d0399fd28f85e91cd773dfa6cf24839a48c95e24 Nb_sv/POTCAR          
   COPYR  = (c) Copyright 25May2007 Georg Kresse                                                    
   COPYR  = This file is part of the software VASP. Any use, copying, and all other rights are regul
   COPYR  = If you do not have a valid VASP license, you may not use, copy or distribute this file. 
   VRHFIN =Nb: 4p5s4d                                                                               
   LEXCH  = PE                                                                                      
   EATOM  =  1555.1913 eV,  114.3033 Ry                                                             
                                                                                                    
   TITEL  = PAW_PBE Nb_sv 25May2007                                                                 
   LULTRA =        F    use ultrasoft PP ?                                                          
   IUNSCR =        1    unscreen: 0-lin 1-nonlin 2-no                                               
   RPACOR =    1.800    partial core radius                                                         
   POMASS =   92.910; ZVAL   =   13.000    mass and valenz                                          
   RCORE  =    2.400    outmost cutoff radius                                                       
   RWIGS  =    2.400; RWIGS  =    1.270    wigner-seitz radius (au A)                               
   ENMAX  =  293.235; ENMIN  =  219.927 eV                                                          
   ICORE  =        3    local potential                                                             
   LCOR   =        T    correct aug charges                                                         
   LPAW   =        T    paw PP                                                                      
   EAUG   =  455.659                                                                                
   DEXC   =    0.000                                                                                
   RMAX   =    2.456    core radius for proj-oper                                                   
   RAUG   =    1.300    factor for augmentation sphere                                              
   RDEP   =    2.451    radius for radial grids                                                     
   RDEPT  =    1.956    core radius for aug-charge                                                  
                                                                                                    
   Atomic configuration                                                                             
   11 entries                                                                                       
     n  l   j            E        occ.                                                              
     1  0  0.50    -18805.2457   2.0000                                                             
     2  0  0.50     -2630.2869   2.0000                                                             
     2  1  1.50     -2348.4046   6.0000                                                             
     3  0  0.50      -438.8757   2.0000                                                             
     3  1  1.50      -346.7588   6.0000                                                             
     3  2  2.50      -196.2560  10.0000                                                             
     4  0  0.50       -58.3859   2.0000                                                             
     5  0  0.50        -3.9816   1.0000                                                             
     4  1  1.50       -34.5141   6.0000                                                             
     4  2  2.50        -3.0408   4.0000                                                             
     4  3  2.50        -1.3606   0.0000                                                             
   Description                                                                                      
     l       E           TYP  RCUT    TYP  RCUT                                                     
     0    -58.3859094     23  2.200                                                                 
     0     -3.9816262     23  2.200                                                                 
     1    -34.5140738     23  2.200                                                                 
     1     13.6058260     23  2.200                                                                 
     2     -3.0408010     23  2.200                                                                 
     2     -0.1283038     23  2.200                                                                 
     3     -1.3605826     23  2.400                                                                 
  local pseudopotential read in
  partial core-charges read in
  partial kinetic energy density read in
  atomic valenz-charges read in
  non local Contribution for L=           0  read in
    real space projection operators read in
  non local Contribution for L=           0  read in
    real space projection operators read in
  non local Contribution for L=           1  read in
    real space projection operators read in
  non local Contribution for L=           1  read in
    real space projection operators read in
  non local Contribution for L=           2  read in
    real space projection operators read in
  non local Contribution for L=           2  read in
    real space projection operators read in
    PAW grid and wavefunctions read in
 
   number of l-projection  operators is LMAX  =           6
   number of lm-projection operators is LMMAX =          18
 
 -----------------------------------------------------------------------------
|                                                                             |
|               ----> ADVICE to this user running VASP <----                  |
|                                                                             |
|     You have a (more or less) 'large supercell' and for larger cells it     |
|     might be more efficient to use real-space projection operators.         |
|     Therefore, try LREAL= Auto in the INCAR file.                           |
|     Mind: For very accurate calculation, you might also keep the            |
|     reciprocal projection scheme (i.e. LREAL=.FALSE.).                      |
|                                                                             |
 -----------------------------------------------------------------------------

  PAW_PBE Zr_sv 04Jan2005               :
 energy of atom  1       EATOM=-1284.2219
 kinetic energy error for atom=    0.0053 (will be added to EATOM!!)
  PAW_PBE Nb_sv 25May2007               :
 energy of atom  2       EATOM=-1555.1913
 kinetic energy error for atom=    0.0081 (will be added to EATOM!!)
 
 
 POSCAR: Zr Nb
  positions in direct lattice
  No initial velocities read in
 IVDW         = 12
 VDW_S6       =    1.0000
 VDW_S8       =    0.7875
 VDW_A1       =    0.4289
 VDW_A2       =    4.4407
 VDW_RADIUS   =   50.2022 A
 VDW_CNRADIUS =   21.1671 A


 exchange-correlation table for PE
   RHO(1)=    0.500       N(1)  =     2000
   RHO(2)=  100.500       N(2)  =     4000
 


--------------------------------------------------------------------------------------------------------


 ion  position               nearest neighbor table
   1  0.242  0.154  0.110-  33 2.87  37 2.89  18 3.02  36 3.06  53 3.09  52 3.23  16 3.25  12 3.27
                            22 3.29   5 3.31  32 3.42  20 3.51
   2  0.238  0.186  0.618-  52 2.97  17 2.99  32 3.10  33 3.18   6 3.20  53 3.21  21 3.25  37 3.28
                            13 3.30  23 3.36  36 3.41  19 3.55
   3  0.255  0.679  0.146-  54 2.97  38 2.99  22 3.07  34 3.10   7 3.17  55 3.25  18 3.32  14 3.34
                            20 3.41  35 3.41  39 3.45  16 3.49
   4  0.273  0.663  0.613-  21 2.76  38 2.94  54 2.99  64 3.02  39 3.08  55 3.09  23 3.12  34 3.18
                            19 3.26  17 3.49  35 3.52  15 3.54
   5  0.500  0.146  0.131-  26 2.87  36 2.93  22 3.01  40 3.03  37 3.11   8 3.15  56 3.16  41 3.20
                            24 3.23  20 3.28   1 3.31  57 3.45
   6  0.488  0.171  0.638-  57 2.91  37 3.02  23 3.16   2 3.20   9 3.21  40 3.28  27 3.29  56 3.30
                            41 3.31  25 3.31  21 3.33  36 3.48
   7  0.503  0.686  0.114-  59 2.77  22 2.86  10 2.98  58 2.99  39 3.13   3 3.17  42 3.18  43 3.18
                            20 3.26  26 3.28  24 3.35  38 3.36
   8  0.747  0.162  0.124-  26 2.83  61 2.93  60 3.01  41 3.03  40 3.08  12 3.08  30 3.13   5 3.15
                            45 3.17  28 3.20  24 3.24  44 3.34
   9  0.740  0.178  0.623-  25 2.89  40 3.00  13 3.05  61 3.06  60 3.10  29 3.10  41 3.18   6 3.21
                            27 3.24  31 3.27  44 3.38  45 3.43
  10  0.736  0.674  0.129-   7 2.98  30 2.99  42 3.02  43 3.10  63 3.12  26 3.19  28 3.27  14 3.31
                            62 3.32  24 3.33  46 3.36  47 3.39
  11  0.760  0.653  0.609-  46 2.89  62 2.98  29 2.99  15 3.02  25 3.06  42 3.08  47 3.13  64 3.21
                            43 3.36  27 3.41  31 3.44  63 3.54
  12  0.987  0.188  0.131-  16 2.92  28 2.97  49 2.99  48 3.02  44 3.04   8 3.08  45 3.11   1 3.27
                            18 3.28  32 3.37  33 3.46  30 3.53
  13  0.979  0.178  0.629-  29 2.97  44 2.99  31 3.02   9 3.05  17 3.06  45 3.09  49 3.20  32 3.22
                            48 3.24   2 3.30  33 3.43  19 3.56
  14  0.995  0.650  0.118-  35 2.88  16 3.06  28 3.06  51 3.13  47 3.19  34 3.29  46 3.31  10 3.31
                             3 3.34  50 3.35  30 3.35  18 3.38
  15  0.996  0.653  0.616-  11 3.02  17 3.04  46 3.05  29 3.08  19 3.09  34 3.11  35 3.12  47 3.20
                            50 3.28  31 3.42   4 3.54  51 3.55
  16  0.113  0.409  0.125-  48 2.91  12 2.92  49 2.92  53 3.05  14 3.06  52 3.15  34 3.15  28 3.16
                            35 3.25   1 3.25   3 3.49  20 3.61
  17  0.109  0.411  0.637-   2 2.99  49 3.02  15 3.04  29 3.05  48 3.06  13 3.06  53 3.14  34 3.18
                            35 3.23  21 3.33  52 3.39   4 3.49
  18  0.109  0.927  0.119-  51 2.86  33 2.99  50 3.00   1 3.02  32 3.18  30 3.25  12 3.28   3 3.32
                            54 3.35  14 3.38  55 3.40  22 3.55
  19  0.117  0.897  0.624-  54 2.96  50 2.97  32 3.05  31 3.06  15 3.09  55 3.13  51 3.23  23 3.24
                             4 3.26  33 3.26   2 3.55  13 3.56
  20  0.396  0.417  0.120-  24 2.73  56 3.01  57 3.05  38 3.11  39 3.19  53 3.24   7 3.26   5 3.28
                            52 3.34   3 3.41   1 3.51  16 3.61
  21  0.369  0.439  0.626-   4 2.76  39 2.97  38 2.99  57 3.09   2 3.25  64 3.26  53 3.29  52 3.32
                             6 3.33  17 3.33  56 3.37  25 3.49
  22  0.387  0.908  0.101-  59 2.73   7 2.86   5 3.01   3 3.07  37 3.12  58 3.12  55 3.13  36 3.16
                            26 3.22   1 3.29  18 3.55  54 3.60
  23  0.370  0.922  0.602-  54 2.98  58 3.00  36 3.06   4 3.12   6 3.16  64 3.17  27 3.22  19 3.24
                            55 3.29   2 3.36  37 3.48  59 3.64
  24  0.610  0.409  0.117-  20 2.73  43 2.98  56 3.02  61 3.11  57 3.13   5 3.23   8 3.24  28 3.25
                            60 3.26  42 3.32  10 3.33   7 3.35
  25  0.641  0.414  0.640-   9 2.89  29 2.96  43 2.98  11 3.06  61 3.06  57 3.09   6 3.31  60 3.34
                            42 3.42  56 3.43  64 3.43  21 3.49
  26  0.637  0.939  0.132-  30 2.80   8 2.83   5 2.87  41 2.94  40 3.11  59 3.11  63 3.17  10 3.19
                            22 3.22  62 3.27   7 3.28  58 3.39
  27  0.623  0.918  0.607-  62 2.81  64 2.95  40 3.11  23 3.22  58 3.23   9 3.24  41 3.27   6 3.29
                            31 3.30  11 3.41  59 3.42  63 3.51
  28  0.865  0.417  0.130-  60 2.97  12 2.97  46 3.03  14 3.06  47 3.13  49 3.14  61 3.14  16 3.16
                             8 3.20  48 3.21  24 3.25  10 3.27
  29  0.871  0.414  0.602-  46 2.75  25 2.96  13 2.97  11 2.99  60 3.05  17 3.05  48 3.07  15 3.08
                             9 3.10  47 3.16  49 3.46  61 3.50
  30  0.855  0.907  0.131-  26 2.80  63 2.81  10 2.99  51 3.08   8 3.13  62 3.14  45 3.15  44 3.19
                            50 3.24  18 3.25  14 3.35  12 3.53
  31  0.879  0.930  0.649-  45 2.88  63 2.99  13 3.02  19 3.06  51 3.07  62 3.20  44 3.22   9 3.27
                            27 3.30  15 3.42  11 3.44  50 3.45
  32  0.114  0.069  0.390-  44 2.80  50 2.82  19 3.05  54 3.07   2 3.10  18 3.18  13 3.22  36 3.24
                            52 3.28  48 3.31  12 3.37   1 3.42
  33  0.138  0.075  0.877-   1 2.87  37 2.94  18 2.99  51 3.13   2 3.18  53 3.20  55 3.20  45 3.23
                            19 3.26  49 3.39  13 3.43  12 3.46
  34  0.130  0.571  0.379-  48 2.90  38 3.08  52 3.10   3 3.10  15 3.11  54 3.14  16 3.15  17 3.18
                             4 3.18  14 3.29  46 3.32  50 3.37
  35  0.108  0.597  0.881-  14 2.88  55 3.05  51 3.09  47 3.10  15 3.12  49 3.17  17 3.23  16 3.25
                            53 3.30   3 3.41   4 3.52  39 3.54
  36  0.366  0.074  0.351-   5 2.93  23 3.06   1 3.06  22 3.16  52 3.16  58 3.16  54 3.21  32 3.24
                            56 3.33  40 3.35   2 3.41   6 3.48
  37  0.367  0.103  0.881-   1 2.89  33 2.94  57 3.01   6 3.02  53 3.06   5 3.11  22 3.12   2 3.28
                            41 3.45  59 3.47  55 3.48  23 3.48
  38  0.372  0.573  0.372-   4 2.94   3 2.99  21 2.99  58 3.05  34 3.08  20 3.11  56 3.15  42 3.16
                            52 3.19  64 3.29  54 3.30   7 3.36
  39  0.386  0.587  0.867-  21 2.97  55 3.06   4 3.08  57 3.09  43 3.12   7 3.13  59 3.18  20 3.19
                            64 3.20  53 3.30   3 3.45  35 3.54
  40  0.627  0.104  0.378-  60 2.90  56 2.97   9 3.00   5 3.03   8 3.08  27 3.11  26 3.11   6 3.28
                            62 3.31  36 3.35  44 3.43  58 3.65
  41  0.636  0.070  0.881-  26 2.94  63 3.00  61 3.00   8 3.03  59 3.05  45 3.16   9 3.18   5 3.20
                            27 3.27   6 3.31  37 3.45  57 3.46
  42  0.619  0.596  0.372-  10 3.02  64 3.02  58 3.04  11 3.08  38 3.16   7 3.18  62 3.18  46 3.23
                            56 3.27  24 3.32  25 3.42  60 3.49
  43  0.630  0.566  0.881-  25 2.98  24 2.98  47 3.03  10 3.10  57 3.12  39 3.12  61 3.18   7 3.18
                            59 3.35  11 3.36  64 3.37  63 3.51
  44  0.895  0.078  0.378-  32 2.80  50 2.98  13 2.99  12 3.04  30 3.19  62 3.22  31 3.22  60 3.24
                            48 3.31   8 3.34   9 3.38  40 3.43
  45  0.884  0.075  0.883-  31 2.88  51 2.91  63 2.96  13 3.09  12 3.11  61 3.15  30 3.15  41 3.16
                             8 3.17  33 3.23  49 3.27   9 3.43
  46  0.870  0.559  0.384-  29 2.75  11 2.89  48 2.99  60 3.02  28 3.03  15 3.05  42 3.23  14 3.31
                            34 3.32  10 3.36  62 3.46  50 3.62
  47  0.867  0.563  0.867-  49 3.01  43 3.03  35 3.10  28 3.13  11 3.13  29 3.16  14 3.19  61 3.19
                            15 3.20  63 3.36  10 3.39  51 3.52
  48  0.013  0.345  0.372-  34 2.90  16 2.91  52 2.97  46 2.99  12 3.02  17 3.06  29 3.07  28 3.21
                            13 3.24  32 3.31  44 3.31  60 3.32
  49  0.001  0.338  0.888-  16 2.92  12 2.99  47 3.01  17 3.02  53 3.06  28 3.14  35 3.17  13 3.20
                            45 3.27  61 3.27  33 3.39  29 3.46
  50  0.012  0.843  0.370-  32 2.82  54 2.86  19 2.97  44 2.98  18 3.00  30 3.24  15 3.28  14 3.35
                            62 3.35  34 3.37  31 3.45  46 3.62
  51  0.995  0.845  0.895-  18 2.86  45 2.91  63 2.92  31 3.07  30 3.08  35 3.09  14 3.13  33 3.13
                            19 3.23  55 3.30  47 3.52  15 3.55
  52  0.246  0.324  0.368-  48 2.97   2 2.97  34 3.10  16 3.15  36 3.16  38 3.19   1 3.23  32 3.28
                            56 3.28  21 3.32  20 3.34  17 3.39
  53  0.241  0.340  0.884-  16 3.05  49 3.06  37 3.06   1 3.09  17 3.14  57 3.20  33 3.20   2 3.21
                            20 3.24  21 3.29  39 3.30  35 3.30
  54  0.235  0.828  0.386-  50 2.86  19 2.96   3 2.97  23 2.98   4 2.99  32 3.07  58 3.13  34 3.14
                            36 3.21  38 3.30  18 3.35  22 3.60
  55  0.252  0.817  0.865-  35 3.05  39 3.06   4 3.09  22 3.13  19 3.13  33 3.20   3 3.25  23 3.29
                            51 3.30  59 3.30  18 3.40  37 3.48
  56  0.503  0.332  0.366-  40 2.97  20 3.01  24 3.02  38 3.15   5 3.16  60 3.20  42 3.27  52 3.28
                             6 3.30  36 3.33  21 3.37  25 3.43
  57  0.491  0.335  0.862-   6 2.91  37 3.01  20 3.05  39 3.09  25 3.09  21 3.09  43 3.12  24 3.13
                            53 3.20  61 3.26   5 3.45  41 3.46
  58  0.480  0.820  0.367-  64 2.98   7 2.99  23 3.00  42 3.04  38 3.05  22 3.12  54 3.13  36 3.16
                            27 3.23  26 3.39  62 3.46  40 3.65
  59  0.510  0.836  0.898-  22 2.73   7 2.77  41 3.05  26 3.11  39 3.18  63 3.27  55 3.30  64 3.32
                            43 3.35  27 3.42  37 3.47  23 3.64
  60  0.754  0.321  0.363-  40 2.90  28 2.97   8 3.01  46 3.02  29 3.05   9 3.10  56 3.20  44 3.24
                            24 3.26  48 3.32  25 3.34  42 3.49
  61  0.746  0.311  0.887-   8 2.93  41 3.00   9 3.06  25 3.06  24 3.11  28 3.14  45 3.15  43 3.18
                            47 3.19  57 3.26  49 3.27  29 3.50
  62  0.750  0.840  0.399-  27 2.81  11 2.98  30 3.14  42 3.18  31 3.20  44 3.22  26 3.27  40 3.31
                            10 3.32  50 3.35  58 3.46  46 3.46
  63  0.766  0.843  0.888-  30 2.81  51 2.92  45 2.96  31 2.99  41 3.00  10 3.12  26 3.17  59 3.27
                            47 3.36  27 3.51  43 3.51  11 3.54
  64  0.510  0.685  0.616-  27 2.95  58 2.98   4 3.02  42 3.02  23 3.17  39 3.20  11 3.21  21 3.26
                            38 3.29  59 3.32  43 3.37  25 3.43
 

IMPORTANT INFORMATION: All symmetrisations will be switched off!
NOSYMM: (Re-)initialisation of all symmetry stuff for point group C_1.


----------------------------------------------------------------------------------------

                                     Primitive cell                                     

  volume of cell :    1436.7176

  direct lattice vectors                    reciprocal lattice vectors
    12.743897884  0.000000039  0.000000000     0.078468928  0.000000014  0.000000000
    -0.000001933 11.031495272  0.000000000    -0.000000000  0.090649543  0.000000000
     0.000000000  0.000000000 10.219619642     0.000000000  0.000000000  0.097851000

  length of vectors
    12.743897884 11.031495272 10.219619642     0.078468928  0.090649543  0.097851000

  position of ions in fractional coordinates (direct lattice)
     0.241537871  0.154462812  0.110372664
     0.238105473  0.185801379  0.617970012
     0.255171266  0.678905252  0.145633942
     0.273488786  0.662722320  0.613483467
     0.500311694  0.146038299  0.131394709
     0.488202692  0.170930705  0.638338729
     0.502522027  0.686314833  0.114475243
     0.746697262  0.161530263  0.124050156
     0.740021770  0.178363370  0.623218274
     0.735891455  0.673561998  0.128728455
     0.759542262  0.653163855  0.609179328
     0.987294569  0.188222460  0.131151894
     0.979433761  0.177618527  0.628593118
     0.995035014  0.650288116  0.117792219
     0.996158022  0.653317039  0.616448982
     0.113078634  0.408874536  0.124767915
     0.108708595  0.411109939  0.636585871
     0.109182364  0.926980977  0.119062710
     0.116779861  0.896521689  0.623532110
     0.396213075  0.417406791  0.120447950
     0.368618997  0.438573266  0.625903257
     0.386520981  0.908180210  0.101212914
     0.369796309  0.922056946  0.601672423
     0.610380829  0.409414459  0.116854775
     0.641026620  0.413811616  0.640476486
     0.636746112  0.938975091  0.131972611
     0.622551225  0.918276932  0.606668006
     0.865106728  0.417310824  0.129568709
     0.870981145  0.414334237  0.602429472
     0.854626100  0.906954600  0.130726408
     0.879187778  0.930212808  0.649080965
     0.114313502  0.068879955  0.389834890
     0.137598124  0.075441097  0.876534549
     0.130140369  0.570530872  0.378511581
     0.108323308  0.596976705  0.880682926
     0.366490919  0.074184059  0.351443270
     0.366724156  0.102836156  0.880995527
     0.371573399  0.573228632  0.372084289
     0.386132605  0.586728970  0.867467710
     0.626863053  0.103795745  0.378130505
     0.636305842  0.069863166  0.881082625
     0.618738416  0.595991138  0.371658124
     0.630275088  0.566405740  0.880587364
     0.894971743  0.077539352  0.378167534
     0.884383955  0.074623941  0.883498797
     0.870191863  0.559113318  0.383848018
     0.867412632  0.562850808  0.866723519
     0.013134713  0.344762745  0.371607518
     0.000893142  0.338323527  0.887811783
     0.011776005  0.843129118  0.370099746
     0.995384924  0.844675353  0.895257642
     0.245541448  0.323534550  0.367879788
     0.240871352  0.339556493  0.884068716
     0.235057340  0.827580587  0.386037606
     0.252302546  0.817198514  0.864592608
     0.502915519  0.331545722  0.366398076
     0.491130480  0.334525817  0.862024535
     0.480037241  0.819958124  0.367241250
     0.509750485  0.836023416  0.897514256
     0.753894096  0.321139152  0.362600713
     0.745566512  0.310945399  0.886514451
     0.749606263  0.839993899  0.398639901
     0.766329067  0.843485141  0.887726757
     0.509509805  0.684584045  0.616417120

  ion indices of the primitive-cell ions
   primitive index   ion index
                 1           1
                 2           2
                 3           3
                 4           4
                 5           5
                 6           6
                 7           7
                 8           8
                 9           9
                10          10
                11          11
                12          12
                13          13
                14          14
                15          15
                16          16
                17          17
                18          18
                19          19
                20          20
                21          21
                22          22
                23          23
                24          24
                25          25
                26          26
                27          27
                28          28
                29          29
                30          30
                31          31
                32          32
                33          33
                34          34
                35          35
                36          36
                37          37
                38          38
                39          39
                40          40
                41          41
                42          42
                43          43
                44          44
                45          45
                46          46
                47          47
                48          48
                49          49
                50          50
                51          51
                52          52
                53          53
                54          54
                55          55
                56          56
                57          57
                58          58
                59          59
                60          60
                61          61
                62          62
                63          63
                64          64

----------------------------------------------------------------------------------------

 
 -----------------------------------------------------------------------------
|                                                                             |
|           W    W    AA    RRRRR   N    N  II  N    N   GGGG   !!!           |
|           W    W   A  A   R    R  NN   N  II  NN   N  G    G  !!!           |
|           W    W  A    A  R    R  N N  N  II  N N  N  G       !!!           |
|           W WW W  AAAAAA  RRRRR   N  N N  II  N  N N  G  GGG   !            |
|           WW  WW  A    A  R   R   N   NN  II  N   NN  G    G                |
|           W    W  A    A  R    R  N    N  II  N    N   GGGG   !!!           |
|                                                                             |
|     The requested file  could not be found or opened for reading            |
|     k-point information. Automatic k-point generation is used as a          |
|     fallback, which may lead to unwanted results.                           |
|                                                                             |
 -----------------------------------------------------------------------------

 

Automatic generation of k-mesh.
 Grid dimensions derived from KSPACING:
 generate k-points for:    2    2    2

 Generating k-lattice:

  Cartesian coordinates                     Fractional coordinates (reciprocal lattice)
     0.039234464  0.000000007  0.000000000     0.500000000  0.000000000  0.000000000
    -0.000000000  0.045324771  0.000000000     0.000000000  0.500000000  0.000000000
     0.000000000  0.000000000  0.048925500     0.000000000  0.000000000  0.500000000

  Length of vectors
     0.039234464  0.045324771  0.048925500

  Shift w.r.t. Gamma in fractional coordinates (k-lattice)
     0.000000000  0.000000000  0.000000000

 
 Subroutine IBZKPT returns following result:
 ===========================================
 
 Found      8 irreducible k-points:
 
 Following reciprocal coordinates:
            Coordinates               Weight
  0.000000  0.000000  0.000000      1.000000
  0.500000 -0.000000  0.000000      1.000000
 -0.000000  0.500000  0.000000      1.000000
  0.500000  0.500000  0.000000      1.000000
  0.000000  0.000000  0.500000      1.000000
  0.500000 -0.000000  0.500000      1.000000
 -0.000000  0.500000  0.500000      1.000000
  0.500000  0.500000  0.500000      1.000000
 
 Following cartesian coordinates:
            Coordinates               Weight
  0.000000  0.000000  0.000000      1.000000
  0.039234  0.000000  0.000000      1.000000
 -0.000000  0.045325  0.000000      1.000000
  0.039234  0.045325  0.000000      1.000000
  0.000000  0.000000  0.048925      1.000000
  0.039234  0.000000  0.048925      1.000000
 -0.000000  0.045325  0.048925      1.000000
  0.039234  0.045325  0.048925      1.000000
 


--------------------------------------------------------------------------------------------------------




 Dimension of arrays:
   k-points           NKPTS =      8   k-points in BZ     NKDIM =      8   number of bands    NBANDS=    464
   number of dos      NEDOS =    301   number of ions     NIONS =     64
   non local maximal  LDIM  =      6   non local SUM 2l+1 LMDIM =     18
   total plane-waves  NPLWV = 614400
   max r-space proj   IRMAX =      1   max aug-charges    IRDMAX=  18308
   dimension x,y,z NGX =    96 NGY =   80 NGZ =   80
   dimension x,y,z NGXF=   192 NGYF=  160 NGZF=  160
   support grid    NGXF=   192 NGYF=  160 NGZF=  160
   ions per type =              63   1
   NGX,Y,Z   is equivalent  to a cutoff of  12.52, 12.06, 13.01 a.u.
   NGXF,Y,Z  is equivalent  to a cutoff of  25.05, 24.11, 26.03 a.u.

 SYSTEM =  Zr63Nb1-singlepoint                     
 POSCAR =  Zr Nb                                   

 Startparameter for this run:
   NWRITE =      2    write-flag & timer
   PREC   = accura    normal or accurate (medium, high low for compatibility)
   ISTART =      0    job   : 0-new  1-cont  2-samecut
   ICHARG =      2    charge: 1-file 2-atom 10-const
   ISPIN  =      1    spin polarized calculation?
   LNONCOLLINEAR =      F non collinear calculations
   LSORBIT =      F    spin-orbit coupling
   INIWAV =      1    electr: 0-lowe 1-rand  2-diag
   LASPH  =      T    aspherical Exc in radial PAW
 Electronic Relaxation 1
   ENCUT  =  480.0 eV  35.28 Ry    5.94 a.u.  22.77 19.71 18.26*2*pi/ulx,y,z
   ENINI  =  480.0     initial cutoff
   ENAUG  =  461.3 eV  augmentation charge cutoff
   NELM   =    200;   NELMIN=  4; NELMDL= -5     # of ELM steps 
   EDIFF  = 0.1E-04   stopping-criterion for ELM
   LREAL  =      F    real-space projection
   NLSPLINE    = F    spline interpolate recip. space projectors
   LCOMPAT=      F    compatible to vasp.4.4
   GGA_COMPAT  = T    GGA compatible to vasp.4.4-vasp.4.6
   LMAXPAW     = -100 max onsite density
   LMAXMIX     =    4 max onsite mixed and CHGCAR
   VOSKOWN=      0    Vosko Wilk Nusair interpolation
   ROPT   =    0.00000   0.00000
 Ionic relaxation
   EDIFFG = -.1E-01   stopping-criterion for IOM
   NSW    =      0    number of steps for IOM
   NBLOCK =      1;   KBLOCK =      1    inner block; outer block 
   IBRION =     -1    ionic relax: 0-MD 1-quasi-New 2-CG
   NFREE  =      1    steps in history (QN), initial steepest desc. (CG)
   ISIF   =      2    stress and relaxation
   IWAVPR =     10    prediction:  0-non 1-charg 2-wave 3-comb
   ISYM   =      0    0-nonsym 1-usesym 2-fastsym
   LCORR  =      T    Harris-Foulkes like correction to forces

   POTIM  = 0.5000    time-step for ionic-motion
   TEIN   =    0.0    initial temperature
   TEBEG  =    0.0;   TEEND  =   0.0 temperature during run
   SMASS  =  -3.00    Nose mass-parameter (am)
   estimated Nose-frequenzy (Omega)   =  0.10E-29 period in steps = 0.13E+47 mass=  -0.371E-26a.u.
   SCALEE = 1.0000    scale energy and forces
   NPACO  =    256;   APACO  = 10.0  distance and # of slots for P.C.
   PSTRESS=    0.0 pullay stress

  Mass of Ions in am
   POMASS =  91.22 92.91
  Ionic Valenz
   ZVAL   =  12.00 13.00
  Atomic Wigner-Seitz radii
   RWIGS  =  -1.00 -1.00
  virtual crystal weights 
   VCA    =   1.00  1.00
   NELECT =     769.0000    total number of electrons
   NUPDOWN=      -1.0000    fix difference up-down

 DOS related values:
   EMIN   =  10.00;   EMAX   =-10.00  energy-range for DOS
   EFERMI =   0.00;   METHOD = LEGACY      
   ISMEAR =     0;   SIGMA  =   0.05  broadening in eV -4-tet -1-fermi 0-gaus

 Electronic relaxation 2 (details)
   IALGO  =     38    algorithm
   LDIAG  =      T    sub-space diagonalisation (order eigenvalues)
   LSUBROT=      F    optimize rotation matrix (better conditioning)
   TURBO    =      0    0=normal 1=particle mesh
   IRESTART =      0    0=no restart 2=restart with 2 vectors
   NREBOOT  =      0    no. of reboots
   NMIN     =      0    reboot dimension
   EREF     =   0.00    reference energy to select bands
   IMIX   =      4    mixing-type and parameters
     AMIX     =   0.40;   BMIX     =  1.00
     AMIX_MAG =   1.60;   BMIX_MAG =  1.00
     AMIN     =   0.10
     WC   =   100.;   INIMIX=   1;  MIXPRE=   1;  MAXMIX= -45

 Intra band minimization:
   WEIMIN = 0.0000     energy-eigenvalue tresh-hold
   EBREAK =  0.54E-08  absolut break condition
   DEPER  =   0.30     relativ break condition  

   TIME   =   0.40     timestep for ELM

  volume/ion in A,a.u.               =      22.45       151.49
  Fermi-wavevector in a.u.,A,eV,Ry     =   1.329209  2.511840 24.038712  1.766796
  Thomas-Fermi vector in A             =   2.458388
 
 Write flags
   LWAVE        =      F    write WAVECAR
   LDOWNSAMPLE  =      F    k-point downsampling of WAVECAR
   LCHARG       =      F    write CHGCAR
   LVTOT        =      T    write LOCPOT, total local potential
   LVHAR        =      F    write LOCPOT, Hartree potential only
   WRT_POTENTIAL= total  ! write potential to hdf5 file
   LELF         =      F    write electronic localiz. function (ELF)
   LORBIT       =     11    0 simple, 1 ext, 2 COOP (PROOUT), +10 PAW based schemes


 Dipole corrections
   LMONO      =      F    monopole corrections only (constant potential shift)
   LDIPOL     =      F    correct potential (dipole corrections)
   IDIPOL     =      0    1-x, 2-y, 3-z, 4-all directions 
   EPSILON    =  1.0000000 bulk dielectric constant
   LVACPOTAV  =      F  vacuum potentials using an averaging scheme for the charge density
   VACPOTFLAT =  0.1000000 required flatness to determine vacuum potential
 Exchange correlation treatment:
   GGA     = PE    functional components
   XC_C    = 1    coefficients multiplying the functional components
   LIBXC   =     F    Libxc                    
   VOSKOWN =     0    Vosko Wilk Nusair interpolation
   LHFCALC =     F    Hartree Fock is set to
   LHFONE  =     F    Hartree Fock one center treatment
   AEXX    =    0.0000 exact exchange contribution

 Parameters of functionals:
   PE:
     No parameter
 
 Van der Waals corrections
   IVDW    =    12    specifies the selected vdW correction

 Linear response parameters
   LEPSILON=     F    determine dielectric tensor
   LRPA    =     F    only Hartree local field effects (RPA)
   LNABLA  =     F    use nabla operator in PAW spheres
   LVEL    =     F    velocity operator in full k-point grid
   CSHIFT  =0.1000    complex shift for real part using Kramers Kronig
   OMEGAMAX=  -1.0    maximum frequency
   DEG_THRESHOLD= 0.2000000E-02 threshold for treating states as degnerate
   RTIME   =   -0.100 relaxation time in fs
  (WPLASMAI=    0.000 imaginary part of plasma frequency in eV, 0.658/RTIME)
   DFIELD  = 0.0000000 0.0000000 0.0000000 field for delta impulse in time
 
  Optional k-point grid parameters
   LKPOINTS_OPT  =     F    use optional k-point grid
   KPOINTS_OPT_MODE=     1    mode for optional k-point grid
 
 Orbital magnetization related:
   ORBITALMAG=     F  switch on orbital magnetization
   LCHIMAG   =     F  perturbation theory with respect to B field
   DQ        =  0.001000  dq finite difference perturbation B field
   LLRAUG    =     F  two centre corrections for induced B field
   LBONE     =     F  B-component reconstruction in AE one-centre
   LVGVCALC  =     T  calculate vGv susceptibility
   LVGVAPPL  =     F  apply vGv susceptibility instead of pGv for G=0

 Random number generation:
   RANDOM_GENERATOR = DEFAULT
   PCG_SEED         = not used


--------------------------------------------------------------------------------------------------------


 Static calculation
 charge density and potential will be updated during run
 non-spin polarized calculation
 Variant of blocked Davidson
 Davidson routine will perform the subspace rotation
 perform sub-space diagonalisation
    after iterative eigenvector-optimisation
 modified Broyden-mixing scheme, WC =      100.0
 initial mixing is a Kerker type mixing with AMIX =  0.4000 and BMIX =      1.0000
 Hartree-type preconditioning will be used
 using additional bands           79
 reciprocal scheme for non local part
 use partial core corrections
 calculate Harris-corrections to forces 
   (improved forces if not selfconsistent)
 use gradient corrections 
 use of overlap-Matrix (Vanderbilt PP)
 Gauss-broadening in eV      SIGMA  =   0.05


--------------------------------------------------------------------------------------------------------


  energy-cutoff  :      480.00
  volume of cell :     1436.72
      direct lattice vectors                 reciprocal lattice vectors
    12.743897884  0.000000039  0.000000000     0.078468928  0.000000014  0.000000000
    -0.000001933 11.031495272  0.000000000    -0.000000000  0.090649543  0.000000000
     0.000000000  0.000000000 10.219619642     0.000000000  0.000000000  0.097851000

  length of vectors
    12.743897884 11.031495272 10.219619642     0.078468928  0.090649543  0.097851000


 
 k-points in units of 2pi/SCALE and weight: read from INCAR                         
   0.00000000  0.00000000  0.00000000       0.125
   0.03923446  0.00000001  0.00000000       0.125
  -0.00000000  0.04532477  0.00000000       0.125
   0.03923446  0.04532478  0.00000000       0.125
   0.00000000  0.00000000  0.04892550       0.125
   0.03923446  0.00000001  0.04892550       0.125
  -0.00000000  0.04532477  0.04892550       0.125
   0.03923446  0.04532478  0.04892550       0.125
 
 k-points in reciprocal lattice and weights: read from INCAR                         
   0.00000000  0.00000000  0.00000000       0.125
   0.50000000 -0.00000000  0.00000000       0.125
  -0.00000000  0.50000000  0.00000000       0.125
   0.50000000  0.50000000  0.00000000       0.125
   0.00000000  0.00000000  0.50000000       0.125
   0.50000000 -0.00000000  0.50000000       0.125
  -0.00000000  0.50000000  0.50000000       0.125
   0.50000000  0.50000000  0.50000000       0.125
 
 position of ions in fractional coordinates (direct lattice) 
   0.24153787  0.15446281  0.11037266
   0.23810547  0.18580138  0.61797001
   0.25517127  0.67890525  0.14563394
   0.27348879  0.66272232  0.61348347
   0.50031169  0.14603830  0.13139471
   0.48820269  0.17093070  0.63833873
   0.50252203  0.68631483  0.11447524
   0.74669726  0.16153026  0.12405016
   0.74002177  0.17836337  0.62321827
   0.73589146  0.67356200  0.12872846
   0.75954226  0.65316386  0.60917933
   0.98729457  0.18822246  0.13115189
   0.97943376  0.17761853  0.62859312
   0.99503501  0.65028812  0.11779222
   0.99615802  0.65331704  0.61644898
   0.11307863  0.40887454  0.12476791
   0.10870860  0.41110994  0.63658587
   0.10918236  0.92698098  0.11906271
   0.11677986  0.89652169  0.62353211
   0.39621307  0.41740679  0.12044795
   0.36861900  0.43857327  0.62590326
   0.38652098  0.90818021  0.10121291
   0.36979631  0.92205695  0.60167242
   0.61038083  0.40941446  0.11685477
   0.64102662  0.41381162  0.64047649
   0.63674611  0.93897509  0.13197261
   0.62255123  0.91827693  0.60666801
   0.86510673  0.41731082  0.12956871
   0.87098115  0.41433424  0.60242947
   0.85462610  0.90695460  0.13072641
   0.87918778  0.93021281  0.64908097
   0.11431350  0.06887995  0.38983489
   0.13759812  0.07544110  0.87653455
   0.13014037  0.57053087  0.37851158
   0.10832331  0.59697670  0.88068293
   0.36649092  0.07418406  0.35144327
   0.36672416  0.10283616  0.88099553
   0.37157340  0.57322863  0.37208429
   0.38613260  0.58672897  0.86746771
   0.62686305  0.10379574  0.37813051
   0.63630584  0.06986317  0.88108262
   0.61873842  0.59599114  0.37165812
   0.63027509  0.56640574  0.88058736
   0.89497174  0.07753935  0.37816753
   0.88438396  0.07462394  0.88349880
   0.87019186  0.55911332  0.38384802
   0.86741263  0.56285081  0.86672352
   0.01313471  0.34476274  0.37160752
   0.00089314  0.33832353  0.88781178
   0.01177600  0.84312912  0.37009975
   0.99538492  0.84467535  0.89525764
   0.24554145  0.32353455  0.36787979
   0.24087135  0.33955649  0.88406872
   0.23505734  0.82758059  0.38603761
   0.25230255  0.81719851  0.86459261
   0.50291552  0.33154572  0.36639808
   0.49113048  0.33452582  0.86202454
   0.48003724  0.81995812  0.36724125
   0.50975048  0.83602342  0.89751426
   0.75389410  0.32113915  0.36260071
   0.74556651  0.31094540  0.88651445
   0.74960626  0.83999390  0.39863990
   0.76632907  0.84348514  0.88772676
   0.50950980  0.68458404  0.61641712
 
 position of ions in cartesian coordinates  (Angst):
   3.07813366  1.70395579  1.12796665
   3.03439147  2.04966704  6.31541847
   3.25187525  7.48934009  1.48832349
   3.48531188  7.31081815  6.26956769
   6.37592086  1.61102082  1.34280395
   6.22160492  1.88562128  6.52357901
   6.40408807  7.57107885  1.16989344
   9.51583334  1.78192036  1.26774541
   9.43076152  1.96761470  6.36905371
   9.37812426  7.43039603  1.31555585
   9.67952776  7.20537401  6.22558103
  12.58198081  2.07637522  1.34032247
  12.48180349  1.95939798  6.42398258
  12.68062335  7.17365032  1.20379168
  12.69493485  7.20706386  6.29987412
   1.44106178  4.51049752  1.27508063
   1.38537044  4.53515735  6.50566547
   1.39140710 10.22598627  1.21677561
   1.48822889  9.88997478  6.37226100
   5.04929816  4.60462106  1.23093224
   4.69764201  4.83811893  6.39649322
   4.92578216 10.01858571  1.03435748
   4.71264462 10.17166686  6.14886331
   7.77863017  4.51645369  1.19421135
   8.16917698  4.56496091  6.54542608
   8.11462562 10.35829930  1.34870989
   7.93372747 10.12996766  6.19991627
  11.02483100  4.60356242  1.32414292
  11.09969397  4.57072621  6.15660006
  10.89126599 10.00506542  1.33597417
  11.20427746 10.26163823  6.63336058
   1.45679946  0.75984890  3.98396430
   1.75353629  0.83222811  8.95784969
   1.65849447  6.29380862  3.86824439
   1.38046002  6.58554570  9.00024453
   4.67052270  0.81836111  3.59161655
   4.67349500  1.13443658  9.00343919
   4.73529235  6.32356896  3.80255991
   4.92083335  6.47249787  8.86519005
   7.98867854  1.14502229  3.86434994
   8.10901654  0.77069521  9.00432930
   7.88513804  6.57467344  3.79820466
   8.03216026  6.24830227  8.99926792
  11.40542835  0.85537503  3.86472836
  11.27049867  0.82321369  9.02902166
  11.08963516  6.16785596  3.92278074
  11.05421692  6.20908606  8.85758470
   0.16738678  3.80324859  3.79768749
   0.01138146  3.73221439  9.07309874
   0.15007057  9.30097488  3.78227863
  12.68508219  9.31803220  9.14919258
   3.12915452  3.56906987  3.75959151
   3.06963926  3.74581586  9.03484601
   2.99554514  9.12945134  3.94515750
   3.21531630  9.01492155  8.83580760
   6.40910338  3.65744508  3.74444897
   6.25891604  3.69031999  8.80956287
   6.11754399  9.04536419  3.75306589
   6.49620651  9.22258838  9.17225432
   9.60754876  3.54264507  3.70564137
   9.50142290  3.43019273  9.05984050
   9.55290405  9.26638875  4.07394816
   9.76601775  9.30490237  9.07222980
   6.49313960  7.55198567  6.29954851
 


--------------------------------------------------------------------------------------------------------


 k-point     1 :   0.0000 0.0000 0.0000  plane waves:   34251
 k-point     2 :   0.5000-0.0000 0.0000  plane waves:   34366
 k-point     3 :  -0.0000 0.5000 0.0000  plane waves:   34312
 k-point     4 :   0.5000 0.5000 0.0000  plane waves:   34288
 k-point     5 :   0.0000 0.0000 0.5000  plane waves:   34436
 k-point     6 :   0.5000-0.0000 0.5000  plane waves:   34324
 k-point     7 :  -0.0000 0.5000 0.5000  plane waves:   34324
 k-point     8 :   0.5000 0.5000 0.5000  plane waves:   34256

 maximum and minimum number of plane-waves per node :      8647     8515

 maximum number of plane-waves:     34436
 maximum index in each direction: 
   IXMAX=   22   IYMAX=   19   IZMAX=   18
   IXMIN=  -23   IYMIN=  -20   IZMIN=  -18


 parallel 3D FFT for wavefunctions:
    minimum data exchange during FFTs selected (reduces bandwidth)
 parallel 3D FFT for charge:
    minimum data exchange during FFTs selected (reduces bandwidth)


 total amount of memory used by VASP MPI-rank0   149987. kBytes
=======================================================================

   base      :      30000. kBytes
   nonl-proj :      28780. kBytes
   fftplans  :       9766. kBytes
   grid      :      14853. kBytes
   one-center:        248. kBytes
   wavefun   :      66340. kBytes
 
     INWAV:  cpu time      0.0000: real time      0.0000
 Broyden mixing: mesh for mixing (old mesh)
   NGX = 45   NGY = 39   NGZ = 37
  (NGX  =192   NGY  =160   NGZ  =160)
  gives a total of  64935 points

 initial charge density was supplied:
 charge density of overlapping atoms calculated
 number of electron     769.0000000 magnetization 
 keeping initial charge density in first step


--------------------------------------------------------------------------------------------------------


 Maximum index for augmentation-charges          809 (set IRDMAX)


--------------------------------------------------------------------------------------------------------


 First call to EWALD:  gamma=   0.157
 Maximum number of real-space cells 2x 3x 3
 Maximum number of reciprocal cells 3x 3x 3

    FEWALD:  cpu time      0.0015: real time      0.0015


--------------------------------------- Ionic step        1  -------------------------------------------




--------------------------------------- Iteration      1(   1)  ---------------------------------------


    POTLOK:  cpu time      0.0942: real time      0.0959
    SETDIJ:  cpu time      0.1314: real time      0.1314
     EDDAV:  cpu time     46.2409: real time     46.2648
       DOS:  cpu time      0.0007: real time      0.0007
    --------------------------------------------
      LOOP:  cpu time     46.4672: real time     46.4929

 eigenvalue-minimisations  :  7440
 total energy-change (2. order) : 0.8915009E+04  (-0.3862045E+05)
 number of electron     769.0000000 magnetization 
 augmentation part      769.0000000 magnetization 

 Free energy of the ion-electron system (eV)
  ---------------------------------------------------
  alpha Z        PSCENC =      3794.98599260
  Ewald energy   TEWEN  =    -67551.22900900
  -Hartree energ DENC   =    -14761.79624203
  -exchange      EXHF   =         0.00000000
  -V(xc)+E(xc)   XCENC  =      3210.85449241
  PAW double counting   =     64489.41963698   -63275.37370488
  entropy T*S    EENTRO =        -0.03444223
  eigenvalues    EBANDS =       547.35371722
  atomic energy  EATOM  =     82460.82817948
  Solvation  Ediel_sol  =         0.00000000
  ---------------------------------------------------
  free energy    TOTEN  =      8915.00862055 eV

  energy without entropy =     8915.04306279  energy(sigma->0) =     8915.02584167


--------------------------------------------------------------------------------------------------------




--------------------------------------- Iteration      1(   2)  ---------------------------------------


     EDDAV:  cpu time     46.8928: real time     46.9223
       DOS:  cpu time      0.0007: real time      0.0007
    --------------------------------------------
      LOOP:  cpu time     46.8935: real time     46.9230

 eigenvalue-minimisations  :  7560
 total energy-change (2. order) :-0.8479335E+04  (-0.8269090E+04)
 number of electron     769.0000000 magnetization 
 augmentation part      769.0000000 magnetization 

 Free energy of the ion-electron system (eV)
  ---------------------------------------------------
  alpha Z        PSCENC =      3794.98599260
  Ewald energy   TEWEN  =    -67551.22900900
  -Hartree energ DENC   =    -14761.79624203
  -exchange      EXHF   =         0.00000000
  -V(xc)+E(xc)   XCENC  =      3210.85449241
  PAW double counting   =     64489.41963698   -63275.37370488
  entropy T*S    EENTRO =        -0.06428854
  eigenvalues    EBANDS =     -7931.95109509
  atomic energy  EATOM  =     82460.82817948
  Solvation  Ediel_sol  =         0.00000000
  ---------------------------------------------------
  free energy    TOTEN  =       435.67396194 eV

  energy without entropy =      435.73825048  energy(sigma->0) =      435.70610621


--------------------------------------------------------------------------------------------------------




--------------------------------------- Iteration      1(   3)  ---------------------------------------


     EDDAV:  cpu time     67.0587: real time     67.0927
       DOS:  cpu time      0.0008: real time      0.0008
    --------------------------------------------
      LOOP:  cpu time     67.0595: real time     67.0935

 eigenvalue-minimisations  : 11672
 total energy-change (2. order) :-0.8527211E+03  (-0.7982822E+03)
 number of electron     769.0000000 magnetization 
 augmentation part      769.0000000 magnetization 

 Free energy of the ion-electron system (eV)
  ---------------------------------------------------
  alpha Z        PSCENC =      3794.98599260
  Ewald energy   TEWEN  =    -67551.22900900
  -Hartree energ DENC   =    -14761.79624203
  -exchange      EXHF   =         0.00000000
  -V(xc)+E(xc)   XCENC  =      3210.85449241
  PAW double counting   =     64489.41963698   -63275.37370488
  entropy T*S    EENTRO =        -0.08137715
  eigenvalues    EBANDS =     -8784.65506011
  atomic energy  EATOM  =     82460.82817948
  Solvation  Ediel_sol  =         0.00000000
  ---------------------------------------------------
  free energy    TOTEN  =      -417.04709169 eV

  energy without entropy =     -416.96571454  energy(sigma->0) =     -417.00640311


--------------------------------------------------------------------------------------------------------




--------------------------------------- Iteration      1(   4)  ---------------------------------------


     EDDAV:  cpu time     70.9967: real time     71.0214
       DOS:  cpu time      0.0009: real time      0.0009
    --------------------------------------------
      LOOP:  cpu time     70.9975: real time     71.0223

 eigenvalue-minimisations  : 12480
 total energy-change (2. order) :-0.1268798E+03  (-0.1224862E+03)
 number of electron     769.0000000 magnetization 
 augmentation part      769.0000000 magnetization 

 Free energy of the ion-electron system (eV)
  ---------------------------------------------------
  alpha Z        PSCENC =      3794.98599260
  Ewald energy   TEWEN  =    -67551.22900900
  -Hartree energ DENC   =    -14761.79624203
  -exchange      EXHF   =         0.00000000
  -V(xc)+E(xc)   XCENC  =      3210.85449241
  PAW double counting   =     64489.41963698   -63275.37370488
  entropy T*S    EENTRO =        -0.09261611
  eigenvalues    EBANDS =     -8911.52362406
  atomic energy  EATOM  =     82460.82817948
  Solvation  Ediel_sol  =         0.00000000
  ---------------------------------------------------
  free energy    TOTEN  =      -543.92689460 eV

  energy without entropy =     -543.83427849  energy(sigma->0) =     -543.88058654


--------------------------------------------------------------------------------------------------------




--------------------------------------- Iteration      1(   5)  ---------------------------------------


     EDDAV:  cpu time     67.4280: real time     67.4577
       DOS:  cpu time      0.0007: real time      0.0007
    CHARGE:  cpu time      0.4035: real time      0.4035
    MIXING:  cpu time      0.0034: real time      0.0034
    --------------------------------------------
      LOOP:  cpu time     67.8356: real time     67.8653

 eigenvalue-minimisations  : 11744
 total energy-change (2. order) :-0.1443406E+02  (-0.1424834E+02)
 number of electron     769.0000000 magnetization 
 augmentation part       10.7091682 magnetization 

 Broyden mixing:
  rms(total) = 0.90839E+01    rms(broyden)= 0.90839E+01
  rms(prec ) = 0.93547E+01
  weight for this iteration     100.00

 Free energy of the ion-electron system (eV)
  ---------------------------------------------------
  alpha Z        PSCENC =      3794.98599260
  Ewald energy   TEWEN  =    -67551.22900900
  -Hartree energ DENC   =    -14761.79624203
  -exchange      EXHF   =         0.00000000
  -V(xc)+E(xc)   XCENC  =      3210.85449241
  PAW double counting   =     64489.41963698   -63275.37370488
  entropy T*S    EENTRO =        -0.09328556
  eigenvalues    EBANDS =     -8925.95701773
  atomic energy  EATOM  =     82460.82817948
  Solvation  Ediel_sol  =         0.00000000
  ---------------------------------------------------
  free energy    TOTEN  =      -558.36095773 eV

  energy without entropy =     -558.26767217  energy(sigma->0) =     -558.31431495


--------------------------------------------------------------------------------------------------------




--------------------------------------- Iteration      1(   6)  ---------------------------------------


    POTLOK:  cpu time      0.0897: real time      0.0946
    SETDIJ:  cpu time      0.1573: real time      0.1573
     EDDAV:  cpu time     56.7450: real time     56.7711
       DOS:  cpu time      0.0014: real time      0.0014
    CHARGE:  cpu time      0.4195: real time      0.4196
    MIXING:  cpu time      0.0036: real time      0.0036
    --------------------------------------------
      LOOP:  cpu time     57.4165: real time     57.4477

 eigenvalue-minimisations  :  9560
 total energy-change (2. order) : 0.1443550E+02  (-0.6382476E+01)
 number of electron     769.0000000 magnetization 
 augmentation part       14.0776154 magnetization 

 Broyden mixing:
  rms(total) = 0.37579E+01    rms(broyden)= 0.37579E+01
  rms(prec ) = 0.46436E+01
  weight for this iteration     100.00

 eigenvalues of (default mixing * dielectric matrix)
  average eigenvalue GAMMA=   1.5856
  1.5856

 Free energy of the ion-electron system (eV)
  ---------------------------------------------------
  alpha Z        PSCENC =      3794.98599260
  Ewald energy   TEWEN  =    -67551.22900900
  -Hartree energ DENC   =    -14249.87122718
  -exchange      EXHF   =         0.00000000
  -V(xc)+E(xc)   XCENC  =      3180.90560874
  PAW double counting   =     80993.92805493   -79783.18315320
  entropy T*S    EENTRO =        -0.09279451
  eigenvalues    EBANDS =     -9390.19711029
  atomic energy  EATOM  =     82460.82817948
  Solvation  Ediel_sol  =         0.00000000
  ---------------------------------------------------
  free energy    TOTEN  =      -543.92545843 eV

  energy without entropy =     -543.83266392  energy(sigma->0) =     -543.87906117


--------------------------------------------------------------------------------------------------------




--------------------------------------- Iteration      1(   7)  ---------------------------------------


    POTLOK:  cpu time      0.0897: real time      0.0910
    SETDIJ:  cpu time      0.1608: real time      0.1608
     EDDAV:  cpu time     62.5817: real time     62.6524
       DOS:  cpu time      0.0030: real time      0.0030
    CHARGE:  cpu time      0.4430: real time      0.4433
    MIXING:  cpu time      0.0037: real time      0.0037
    --------------------------------------------
      LOOP:  cpu time     63.2819: real time     63.3541

 eigenvalue-minimisations  : 10736
 total energy-change (2. order) :-0.2884995E+02  (-0.1213260E+02)
 number of electron     769.0000000 magnetization 
 augmentation part       16.5641383 magnetization 

 Broyden mixing:
  rms(total) = 0.29479E+01    rms(broyden)= 0.29478E+01
  rms(prec ) = 0.86411E+01
  weight for this iteration     100.00

 eigenvalues of (default mixing * dielectric matrix)
  average eigenvalue GAMMA=   0.9980
  1.6558  0.3402

 Free energy of the ion-electron system (eV)
  ---------------------------------------------------
  alpha Z        PSCENC =      3794.98599260
  Ewald energy   TEWEN  =    -67551.22900900
  -Hartree energ DENC   =    -13981.71318981
  -exchange      EXHF   =         0.00000000
  -V(xc)+E(xc)   XCENC  =      3167.39321104
  PAW double counting   =     90476.64949756   -89251.44873659
  entropy T*S    EENTRO =        -0.10733919
  eigenvalues    EBANDS =     -9688.13401269
  atomic energy  EATOM  =     82460.82817948
  Solvation  Ediel_sol  =         0.00000000
  ---------------------------------------------------
  free energy    TOTEN  =      -572.77540660 eV

  energy without entropy =     -572.66806741  energy(sigma->0) =     -572.72173701


--------------------------------------------------------------------------------------------------------




--------------------------------------- Iteration      1(   8)  ---------------------------------------


    POTLOK:  cpu time      0.0906: real time      0.0969
    SETDIJ:  cpu time      0.1686: real time      0.1686
     EDDAV:  cpu time     59.4545: real time     59.5226
       DOS:  cpu time      0.0009: real time      0.0009
    CHARGE:  cpu time      0.4410: real time      0.4414
    MIXING:  cpu time      0.0038: real time      0.0038
    --------------------------------------------
      LOOP:  cpu time     60.1595: real time     60.2341

 eigenvalue-minimisations  : 10088
 total energy-change (2. order) : 0.3448017E+02  (-0.7565243E+01)
 number of electron     769.0000000 magnetization 
 augmentation part       14.7639416 magnetization 

 Broyden mixing:
  rms(total) = 0.11335E+01    rms(broyden)= 0.11335E+01
  rms(prec ) = 0.25738E+01
  weight for this iteration     100.00

 eigenvalues of (default mixing * dielectric matrix)
  average eigenvalue GAMMA=   0.8081
  1.6962  0.4634  0.2645

 Free energy of the ion-electron system (eV)
  ---------------------------------------------------
  alpha Z        PSCENC =      3794.98599260
  Ewald energy   TEWEN  =    -67551.22900900
  -Hartree energ DENC   =    -13912.90449719
  -exchange      EXHF   =         0.00000000
  -V(xc)+E(xc)   XCENC  =      3162.82253630
  PAW double counting   =     94485.80741626   -93250.74586541
  entropy T*S    EENTRO =        -0.10359748
  eigenvalues    EBANDS =     -9727.75638854
  atomic energy  EATOM  =     82460.82817948
  Solvation  Ediel_sol  =         0.00000000
  ---------------------------------------------------
  free energy    TOTEN  =      -538.29523298 eV

  energy without entropy =     -538.19163550  energy(sigma->0) =     -538.24343424


--------------------------------------------------------------------------------------------------------




--------------------------------------- Iteration      1(   9)  ---------------------------------------


    POTLOK:  cpu time      0.0904: real time      0.0988
    SETDIJ:  cpu time      0.1703: real time      0.1704
     EDDAV:  cpu time     60.5563: real time     60.6242
       DOS:  cpu time      0.0014: real time      0.0014
    CHARGE:  cpu time      0.4466: real time      0.4467
    MIXING:  cpu time      0.0039: real time      0.0039
    --------------------------------------------
      LOOP:  cpu time     61.2689: real time     61.3454

 eigenvalue-minimisations  : 10304
 total energy-change (2. order) : 0.2084225E+01  (-0.3318733E+01)
 number of electron     769.0000000 magnetization 
 augmentation part       10.5238956 magnetization 

 Broyden mixing:
  rms(total) = 0.69835E+00    rms(broyden)= 0.69831E+00
  rms(prec ) = 0.91642E+00
  weight for this iteration     100.00

 eigenvalues of (default mixing * dielectric matrix)
  average eigenvalue GAMMA=   0.6658
  1.6975  0.5023  0.2615  0.2020

 Free energy of the ion-electron system (eV)
  ---------------------------------------------------
  alpha Z        PSCENC =      3794.98599260
  Ewald energy   TEWEN  =    -67551.22900900
  -Hartree energ DENC   =    -13902.84412057
  -exchange      EXHF   =         0.00000000
  -V(xc)+E(xc)   XCENC  =      3162.04218026
  PAW double counting   =     95473.21519783   -94231.55018225
  entropy T*S    EENTRO =        -0.10308356
  eigenvalues    EBANDS =     -9741.55616249
  atomic energy  EATOM  =     82460.82817948
  Solvation  Ediel_sol  =         0.00000000
  ---------------------------------------------------
  free energy    TOTEN  =      -536.21100769 eV

  energy without entropy =     -536.10792413  energy(sigma->0) =     -536.15946591


--------------------------------------------------------------------------------------------------------




--------------------------------------- Iteration      1(  10)  ---------------------------------------


    POTLOK:  cpu time      0.0904: real time      0.0961
    SETDIJ:  cpu time      0.1687: real time      0.1687
     EDDAV:  cpu time     60.4862: real time     60.5574
       DOS:  cpu time      0.0037: real time      0.0037
    CHARGE:  cpu time      0.4499: real time      0.4501
    MIXING:  cpu time      0.0040: real time      0.0040
    --------------------------------------------
      LOOP:  cpu time     61.2028: real time     61.2799

 eigenvalue-minimisations  : 10288
 total energy-change (2. order) :-0.1469424E+00  (-0.4659541E+00)
 number of electron     769.0000000 magnetization 
 augmentation part        9.0465759 magnetization 

 Broyden mixing:
  rms(total) = 0.64394E+00    rms(broyden)= 0.64394E+00
  rms(prec ) = 0.72310E+00
  weight for this iteration     100.00

 eigenvalues of (default mixing * dielectric matrix)
  average eigenvalue GAMMA=   0.5935
  1.6974  0.4895  0.2610  0.2598  0.2598

 Free energy of the ion-electron system (eV)
  ---------------------------------------------------
  alpha Z        PSCENC =      3794.98599260
  Ewald energy   TEWEN  =    -67551.22900900
  -Hartree energ DENC   =    -13913.88505340
  -exchange      EXHF   =         0.00000000
  -V(xc)+E(xc)   XCENC  =      3162.54588756
  PAW double counting   =     95808.62260919   -94554.97662889
  entropy T*S    EENTRO =        -0.10834491
  eigenvalues    EBANDS =     -9743.14158277
  atomic energy  EATOM  =     82460.82817948
  Solvation  Ediel_sol  =         0.00000000
  ---------------------------------------------------
  free energy    TOTEN  =      -536.35795013 eV

  energy without entropy =     -536.24960521  energy(sigma->0) =     -536.30377767


--------------------------------------------------------------------------------------------------------




--------------------------------------- Iteration      1(  11)  ---------------------------------------


    POTLOK:  cpu time      0.0907: real time      0.0969
    SETDIJ:  cpu time      0.1724: real time      0.1725
     EDDAV:  cpu time     62.5825: real time     62.6521
       DOS:  cpu time      0.0009: real time      0.0009
    CHARGE:  cpu time      0.4520: real time      0.4522
    MIXING:  cpu time      0.0040: real time      0.0040
    --------------------------------------------
      LOOP:  cpu time     63.3025: real time     63.3786

 eigenvalue-minimisations  : 10704
 total energy-change (2. order) :-0.3950222E-01  (-0.4310753E-01)
 number of electron     769.0000000 magnetization 
 augmentation part        8.8111897 magnetization 

 Broyden mixing:
  rms(total) = 0.60539E+00    rms(broyden)= 0.60539E+00
  rms(prec ) = 0.68087E+00
  weight for this iteration     100.00

 eigenvalues of (default mixing * dielectric matrix)
  average eigenvalue GAMMA=   0.8125
  1.6763  1.0647  1.0647  0.4938  0.3221  0.2537

 Free energy of the ion-electron system (eV)
  ---------------------------------------------------
  alpha Z        PSCENC =      3794.98599260
  Ewald energy   TEWEN  =    -67551.22900900
  -Hartree energ DENC   =    -13920.44089878
  -exchange      EXHF   =         0.00000000
  -V(xc)+E(xc)   XCENC  =      3162.86679070
  PAW double counting   =     95953.61694498   -94692.91807928
  entropy T*S    EENTRO =        -0.10803755
  eigenvalues    EBANDS =     -9743.99933550
  atomic energy  EATOM  =     82460.82817948
  Solvation  Ediel_sol  =         0.00000000
  ---------------------------------------------------
  free energy    TOTEN  =      -536.39745234 eV

  energy without entropy =     -536.28941479  energy(sigma->0) =     -536.34343357


--------------------------------------------------------------------------------------------------------




--------------------------------------- Iteration      1(  12)  ---------------------------------------


    POTLOK:  cpu time      0.0905: real time      0.0960
    SETDIJ:  cpu time      0.1714: real time      0.1714
     EDDAV:  cpu time     58.8777: real time     58.9466
       DOS:  cpu time      0.0060: real time      0.0060
    CHARGE:  cpu time      0.4504: real time      0.4506
    MIXING:  cpu time      0.0042: real time      0.0042
    --------------------------------------------
      LOOP:  cpu time     59.6002: real time     59.6748

 eigenvalue-minimisations  :  9952
 total energy-change (2. order) :-0.1333976E+00  (-0.2916763E-01)
 number of electron     769.0000000 magnetization 
 augmentation part        8.7888528 magnetization 

 Broyden mixing:
  rms(total) = 0.40266E+00    rms(broyden)= 0.40266E+00
  rms(prec ) = 0.61056E+00
  weight for this iteration     100.00

 eigenvalues of (default mixing * dielectric matrix)
  average eigenvalue GAMMA=   0.9436
  2.1894  1.7273  1.1052  0.5015  0.5015  0.2597  0.3207

 Free energy of the ion-electron system (eV)
  ---------------------------------------------------
  alpha Z        PSCENC =      3794.98599260
  Ewald energy   TEWEN  =    -67551.22900900
  -Hartree energ DENC   =    -13953.43244408
  -exchange      EXHF   =         0.00000000
  -V(xc)+E(xc)   XCENC  =      3164.46728868
  PAW double counting   =     96570.94637856   -95275.54629822
  entropy T*S    EENTRO =        -0.10589169
  eigenvalues    EBANDS =     -9747.44504625
  atomic energy  EATOM  =     82460.82817948
  Solvation  Ediel_sol  =         0.00000000
  ---------------------------------------------------
  free energy    TOTEN  =      -536.53084991 eV

  energy without entropy =     -536.42495822  energy(sigma->0) =     -536.47790407


--------------------------------------------------------------------------------------------------------




--------------------------------------- Iteration      1(  13)  ---------------------------------------


    POTLOK:  cpu time      0.0902: real time      0.0902
    SETDIJ:  cpu time      0.1702: real time      0.1702
     EDDAV:  cpu time     59.0182: real time     59.0900
       DOS:  cpu time      0.0079: real time      0.0079
    CHARGE:  cpu time      0.4471: real time      0.4473
    MIXING:  cpu time      0.0041: real time      0.0041
    --------------------------------------------
      LOOP:  cpu time     59.7376: real time     59.8097

 eigenvalue-minimisations  :  9976
 total energy-change (2. order) :-0.1803529E-01  (-0.6514564E-01)
 number of electron     769.0000000 magnetization 
 augmentation part        8.8187997 magnetization 

 Broyden mixing:
  rms(total) = 0.20487E+00    rms(broyden)= 0.20486E+00
  rms(prec ) = 0.49549E+00
  weight for this iteration     100.00

 eigenvalues of (default mixing * dielectric matrix)
  average eigenvalue GAMMA=   0.8955
  2.5647  1.6894  0.9729  0.5400  0.5400  0.3370  0.2600  0.2600

 Free energy of the ion-electron system (eV)
  ---------------------------------------------------
  alpha Z        PSCENC =      3794.98599260
  Ewald energy   TEWEN  =    -67551.22900900
  -Hartree energ DENC   =    -13996.88019777
  -exchange      EXHF   =         0.00000000
  -V(xc)+E(xc)   XCENC  =      3166.60483900
  PAW double counting   =     97492.08203335   -96149.18157466
  entropy T*S    EENTRO =        -0.11122617
  eigenvalues    EBANDS =     -9753.64792205
  atomic energy  EATOM  =     82460.82817948
  Solvation  Ediel_sol  =         0.00000000
  ---------------------------------------------------
  free energy    TOTEN  =      -536.54888520 eV

  energy without entropy =     -536.43765903  energy(sigma->0) =     -536.49327212


--------------------------------------------------------------------------------------------------------




--------------------------------------- Iteration      1(  14)  ---------------------------------------


    POTLOK:  cpu time      0.0903: real time      0.0945
    SETDIJ:  cpu time      0.1706: real time      0.1708
     EDDAV:  cpu time     57.8526: real time     57.9234
       DOS:  cpu time      0.0049: real time      0.0049
    CHARGE:  cpu time      0.4457: real time      0.4458
    MIXING:  cpu time      0.0041: real time      0.0041
    --------------------------------------------
      LOOP:  cpu time     58.5682: real time     58.6435

 eigenvalue-minimisations  :  9736
 total energy-change (2. order) : 0.8742350E-01  (-0.3690568E-01)
 number of electron     769.0000000 magnetization 
 augmentation part        8.8434131 magnetization 

 Broyden mixing:
  rms(total) = 0.16102E+00    rms(broyden)= 0.16101E+00
  rms(prec ) = 0.21551E+00
  weight for this iteration     100.00

 eigenvalues of (default mixing * dielectric matrix)
  average eigenvalue GAMMA=   0.8336
  2.5988  1.6805  0.8914  0.5562  0.5562  0.3590  0.3590  0.2585  0.2432

 Free energy of the ion-electron system (eV)
  ---------------------------------------------------
  alpha Z        PSCENC =      3794.98599260
  Ewald energy   TEWEN  =    -67551.22900900
  -Hartree energ DENC   =    -14011.83040529
  -exchange      EXHF   =         0.00000000
  -V(xc)+E(xc)   XCENC  =      3167.32601044
  PAW double counting   =     97915.21611724   -96555.36264813
  entropy T*S    EENTRO =        -0.10736685
  eigenvalues    EBANDS =     -9756.28833222
  atomic energy  EATOM  =     82460.82817948
  Solvation  Ediel_sol  =         0.00000000
  ---------------------------------------------------
  free energy    TOTEN  =      -536.46146171 eV

  energy without entropy =     -536.35409486  energy(sigma->0) =     -536.40777828


--------------------------------------------------------------------------------------------------------




--------------------------------------- Iteration      1(  15)  ---------------------------------------


    POTLOK:  cpu time      0.0909: real time      0.0909
    SETDIJ:  cpu time      0.1722: real time      0.1722
     EDDAV:  cpu time     57.5300: real time     57.6011
       DOS:  cpu time      0.0028: real time      0.0028
    CHARGE:  cpu time      0.4512: real time      0.4513
    MIXING:  cpu time      0.0046: real time      0.0046
    --------------------------------------------
      LOOP:  cpu time     58.2517: real time     58.3230

 eigenvalue-minimisations  :  9680
 total energy-change (2. order) : 0.1035986E-01  (-0.7691454E-02)
 number of electron     769.0000000 magnetization 
 augmentation part        8.8767260 magnetization 

 Broyden mixing:
  rms(total) = 0.14133E+00    rms(broyden)= 0.14133E+00
  rms(prec ) = 0.16609E+00
  weight for this iteration     100.00

 eigenvalues of (default mixing * dielectric matrix)
  average eigenvalue GAMMA=   0.7922
  2.6053  1.6800  0.8255  0.5631  0.5631  0.4306  0.4306  0.3130  0.2554  0.2554

 Free energy of the ion-electron system (eV)
  ---------------------------------------------------
  alpha Z        PSCENC =      3794.98599260
  Ewald energy   TEWEN  =    -67551.22900900
  -Hartree energ DENC   =    -14010.89400990
  -exchange      EXHF   =         0.00000000
  -V(xc)+E(xc)   XCENC  =      3167.28350173
  PAW double counting   =     97958.21186170   -96598.56463329
  entropy T*S    EENTRO =        -0.10902855
  eigenvalues    EBANDS =     -9756.96395663
  atomic energy  EATOM  =     82460.82817948
  Solvation  Ediel_sol  =         0.00000000
  ---------------------------------------------------
  free energy    TOTEN  =      -536.45110185 eV

  energy without entropy =     -536.34207330  energy(sigma->0) =     -536.39658757


--------------------------------------------------------------------------------------------------------




--------------------------------------- Iteration      1(  16)  ---------------------------------------


    POTLOK:  cpu time      0.0905: real time      0.0953
    SETDIJ:  cpu time      0.1700: real time      0.1703
     EDDAV:  cpu time     62.6653: real time     62.7431
       DOS:  cpu time      0.0067: real time      0.0067
    CHARGE:  cpu time      0.4487: real time      0.4489
    MIXING:  cpu time      0.0043: real time      0.0043
    --------------------------------------------
      LOOP:  cpu time     63.3855: real time     63.4687

 eigenvalue-minimisations  : 10744
 total energy-change (2. order) : 0.1665546E-02  (-0.1361773E-02)
 number of electron     769.0000000 magnetization 
 augmentation part        8.9046348 magnetization 

 Broyden mixing:
  rms(total) = 0.12496E+00    rms(broyden)= 0.12496E+00
  rms(prec ) = 0.14651E+00
  weight for this iteration     100.00

 eigenvalues of (default mixing * dielectric matrix)
  average eigenvalue GAMMA=   0.8068
  2.5775  1.6807  0.8084  0.8084  0.7568  0.5186  0.5186  0.3667  0.3333  0.2531
  0.2531

 Free energy of the ion-electron system (eV)
  ---------------------------------------------------
  alpha Z        PSCENC =      3794.98599260
  Ewald energy   TEWEN  =    -67551.22900900
  -Hartree energ DENC   =    -14009.46572469
  -exchange      EXHF   =         0.00000000
  -V(xc)+E(xc)   XCENC  =      3167.21502539
  PAW double counting   =     97954.18740986   -96595.71400513
  entropy T*S    EENTRO =        -0.10891018
  eigenvalues    EBANDS =     -9757.14839463
  atomic energy  EATOM  =     82460.82817948
  Solvation  Ediel_sol  =         0.00000000
  ---------------------------------------------------
  free energy    TOTEN  =      -536.44943630 eV

  energy without entropy =     -536.34052612  energy(sigma->0) =     -536.39498121


--------------------------------------------------------------------------------------------------------




--------------------------------------- Iteration      1(  17)  ---------------------------------------


    POTLOK:  cpu time      0.0902: real time      0.0940
    SETDIJ:  cpu time      0.1732: real time      0.1732
     EDDAV:  cpu time     59.3842: real time     59.4594
       DOS:  cpu time      0.0097: real time      0.0097
    CHARGE:  cpu time      0.4530: real time      0.4534
    MIXING:  cpu time      0.0044: real time      0.0044
    --------------------------------------------
      LOOP:  cpu time     60.1147: real time     60.1940

 eigenvalue-minimisations  : 10072
 total energy-change (2. order) : 0.4060374E-02  (-0.3780307E-03)
 number of electron     769.0000000 magnetization 
 augmentation part        8.8966480 magnetization 

 Broyden mixing:
  rms(total) = 0.91565E-01    rms(broyden)= 0.91565E-01
  rms(prec ) = 0.10802E+00
  weight for this iteration     100.00

 eigenvalues of (default mixing * dielectric matrix)
  average eigenvalue GAMMA=   0.8773
  2.5509  1.7163  1.3126  1.3126  0.8322  0.5800  0.5800  0.4042  0.4042  0.3281
  0.2536  0.2530

 Free energy of the ion-electron system (eV)
  ---------------------------------------------------
  alpha Z        PSCENC =      3794.98599260
  Ewald energy   TEWEN  =    -67551.22900900
  -Hartree energ DENC   =    -14006.05696760
  -exchange      EXHF   =         0.00000000
  -V(xc)+E(xc)   XCENC  =      3167.05290159
  PAW double counting   =     97939.69177729   -96584.01301053
  entropy T*S    EENTRO =        -0.10896276
  eigenvalues    EBANDS =     -9757.59627701
  atomic energy  EATOM  =     82460.82817948
  Solvation  Ediel_sol  =         0.00000000
  ---------------------------------------------------
  free energy    TOTEN  =      -536.44537593 eV

  energy without entropy =     -536.33641317  energy(sigma->0) =     -536.39089455


--------------------------------------------------------------------------------------------------------




--------------------------------------- Iteration      1(  18)  ---------------------------------------


    POTLOK:  cpu time      0.0900: real time      0.0953
    SETDIJ:  cpu time      0.1726: real time      0.1727
     EDDAV:  cpu time     60.7457: real time     60.8240
       DOS:  cpu time      0.0080: real time      0.0080
    CHARGE:  cpu time      0.4520: real time      0.4521
    MIXING:  cpu time      0.0046: real time      0.0046
    --------------------------------------------
      LOOP:  cpu time     61.4729: real time     61.5567

 eigenvalue-minimisations  : 10352
 total energy-change (2. order) : 0.3618934E-02  (-0.6413461E-03)
 number of electron     769.0000000 magnetization 
 augmentation part        8.8744010 magnetization 

 Broyden mixing:
  rms(total) = 0.46134E-01    rms(broyden)= 0.46134E-01
  rms(prec ) = 0.55914E-01
  weight for this iteration     100.00

 eigenvalues of (default mixing * dielectric matrix)
  average eigenvalue GAMMA=   0.8764
  2.5415  1.7446  1.4638  1.4638  0.8588  0.6060  0.6060  0.4590  0.4590  0.3533
  0.3313  0.2531  0.2536

 Free energy of the ion-electron system (eV)
  ---------------------------------------------------
  alpha Z        PSCENC =      3794.98599260
  Ewald energy   TEWEN  =    -67551.22900900
  -Hartree energ DENC   =    -14001.77478585
  -exchange      EXHF   =         0.00000000
  -V(xc)+E(xc)   XCENC  =      3166.85203861
  PAW double counting   =     97913.39974411   -96561.42108083
  entropy T*S    EENTRO =        -0.10890782
  eigenvalues    EBANDS =     -9757.97392830
  atomic energy  EATOM  =     82460.82817948
  Solvation  Ediel_sol  =         0.00000000
  ---------------------------------------------------
  free energy    TOTEN  =      -536.44175699 eV

  energy without entropy =     -536.33284918  energy(sigma->0) =     -536.38730309


--------------------------------------------------------------------------------------------------------




--------------------------------------- Iteration      1(  19)  ---------------------------------------


    POTLOK:  cpu time      0.0973: real time      0.1036
    SETDIJ:  cpu time      0.2324: real time      0.2324
     EDDAV:  cpu time     61.5076: real time     61.5277
       DOS:  cpu time      0.0041: real time      0.0041
    CHARGE:  cpu time      0.4469: real time      0.4469
    MIXING:  cpu time      0.0046: real time      0.0046
    --------------------------------------------
      LOOP:  cpu time     62.2931: real time     62.3194

 eigenvalue-minimisations  : 10480
 total energy-change (2. order) : 0.9538889E-03  (-0.4367575E-03)
 number of electron     769.0000000 magnetization 
 augmentation part        8.8421190 magnetization 

 Broyden mixing:
  rms(total) = 0.17634E-01    rms(broyden)= 0.17634E-01
  rms(prec ) = 0.21237E-01
  weight for this iteration     100.00

 eigenvalues of (default mixing * dielectric matrix)
  average eigenvalue GAMMA=   0.8752
  2.5421  1.7372  1.5573  1.5573  0.7839  0.6741  0.6741  0.6440  0.5170  0.4011
  0.2543  0.2523  0.3288  0.3288

 Free energy of the ion-electron system (eV)
  ---------------------------------------------------
  alpha Z        PSCENC =      3794.98599260
  Ewald energy   TEWEN  =    -67551.22900900
  -Hartree energ DENC   =    -13999.68111785
  -exchange      EXHF   =         0.00000000
  -V(xc)+E(xc)   XCENC  =      3166.75663676
  PAW double counting   =     97899.27670587   -96549.22270225
  entropy T*S    EENTRO =        -0.10900572
  eigenvalues    EBANDS =     -9758.04648299
  atomic energy  EATOM  =     82460.82817948
  Solvation  Ediel_sol  =         0.00000000
  ---------------------------------------------------
  free energy    TOTEN  =      -536.44080311 eV

  energy without entropy =     -536.33179738  energy(sigma->0) =     -536.38630024


--------------------------------------------------------------------------------------------------------




--------------------------------------- Iteration      1(  20)  ---------------------------------------


    POTLOK:  cpu time      0.0919: real time      0.0966
    SETDIJ:  cpu time      0.1739: real time      0.1739
     EDDAV:  cpu time     63.5023: real time     63.5233
       DOS:  cpu time      0.0044: real time      0.0044
    CHARGE:  cpu time      0.4504: real time      0.4504
    MIXING:  cpu time      0.0047: real time      0.0047
    --------------------------------------------
      LOOP:  cpu time     64.2275: real time     64.2532

 eigenvalue-minimisations  : 10896
 total energy-change (2. order) :-0.2147617E-04  (-0.1418070E-03)
 number of electron     769.0000000 magnetization 
 augmentation part        8.8266488 magnetization 

 Broyden mixing:
  rms(total) = 0.11238E-01    rms(broyden)= 0.11238E-01
  rms(prec ) = 0.13478E-01
  weight for this iteration     100.00

 eigenvalues of (default mixing * dielectric matrix)
  average eigenvalue GAMMA=   0.8761
  2.5174  1.6302  1.6302  1.7087  0.9146  0.9146  0.6578  0.6578  0.5494  0.2532
  0.2534  0.3888  0.3888  0.3536  0.3229

 Free energy of the ion-electron system (eV)
  ---------------------------------------------------
  alpha Z        PSCENC =      3794.98599260
  Ewald energy   TEWEN  =    -67551.22900900
  -Hartree energ DENC   =    -13999.36897789
  -exchange      EXHF   =         0.00000000
  -V(xc)+E(xc)   XCENC  =      3166.74334366
  PAW double counting   =     97894.59731882   -96544.91525752
  entropy T*S    EENTRO =        -0.10900553
  eigenvalues    EBANDS =     -9757.97340921
  atomic energy  EATOM  =     82460.82817948
  Solvation  Ediel_sol  =         0.00000000
  ---------------------------------------------------
  free energy    TOTEN  =      -536.44082458 eV

  energy without entropy =     -536.33181906  energy(sigma->0) =     -536.38632182


--------------------------------------------------------------------------------------------------------




--------------------------------------- Iteration      1(  21)  ---------------------------------------


    POTLOK:  cpu time      0.0894: real time      0.0952
    SETDIJ:  cpu time      0.1756: real time      0.1757
     EDDAV:  cpu time     58.7946: real time     58.8111
       DOS:  cpu time      0.0008: real time      0.0008
    CHARGE:  cpu time      0.4418: real time      0.4418
    MIXING:  cpu time      0.0047: real time      0.0047
    --------------------------------------------
      LOOP:  cpu time     59.5069: real time     59.5292

 eigenvalue-minimisations  :  9928
 total energy-change (2. order) : 0.3094337E-04  (-0.2196536E-04)
 number of electron     769.0000000 magnetization 
 augmentation part        8.8241220 magnetization 

 Broyden mixing:
  rms(total) = 0.71816E-02    rms(broyden)= 0.71816E-02
  rms(prec ) = 0.86442E-02
  weight for this iteration     100.00

 eigenvalues of (default mixing * dielectric matrix)
  average eigenvalue GAMMA=   0.9137
  2.5131  1.5893  1.5893  1.4846  1.4846  1.4194  0.7987  0.6264  0.6264  0.4874
  0.4391  0.2539  0.2527  0.3839  0.3409  0.3293

 Free energy of the ion-electron system (eV)
  ---------------------------------------------------
  alpha Z        PSCENC =      3794.98599260
  Ewald energy   TEWEN  =    -67551.22900900
  -Hartree energ DENC   =    -13999.08520162
  -exchange      EXHF   =         0.00000000
  -V(xc)+E(xc)   XCENC  =      3166.73069122
  PAW double counting   =     97889.06231663   -96539.77222534
  entropy T*S    EENTRO =        -0.10900585
  eigenvalues    EBANDS =     -9757.85253177
  atomic energy  EATOM  =     82460.82817948
  Solvation  Ediel_sol  =         0.00000000
  ---------------------------------------------------
  free energy    TOTEN  =      -536.44079364 eV

  energy without entropy =     -536.33178779  energy(sigma->0) =     -536.38629072


--------------------------------------------------------------------------------------------------------




--------------------------------------- Iteration      1(  22)  ---------------------------------------


    POTLOK:  cpu time      0.0898: real time      0.0915
    SETDIJ:  cpu time      0.1688: real time      0.1688
     EDDAV:  cpu time     51.4656: real time     51.4835
       DOS:  cpu time      0.0007: real time      0.0007
    CHARGE:  cpu time      0.4430: real time      0.4430
    MIXING:  cpu time      0.0049: real time      0.0049
    --------------------------------------------
      LOOP:  cpu time     52.1728: real time     52.1924

 eigenvalue-minimisations  :  8440
 total energy-change (2. order) : 0.1945237E-04  (-0.1162410E-04)
 number of electron     769.0000000 magnetization 
 augmentation part        8.8237085 magnetization 

 Broyden mixing:
  rms(total) = 0.37609E-02    rms(broyden)= 0.37608E-02
  rms(prec ) = 0.52658E-02
  weight for this iteration     100.00

 eigenvalues of (default mixing * dielectric matrix)
  average eigenvalue GAMMA=   0.9218
  2.5110  1.9806  1.9806  1.4917  1.4917  1.1473  0.8248  0.6378  0.6378  0.5512
  0.2527  0.2539  0.4412  0.3271  0.3370  0.4151  0.3891

 Free energy of the ion-electron system (eV)
  ---------------------------------------------------
  alpha Z        PSCENC =      3794.98599260
  Ewald energy   TEWEN  =    -67551.22900900
  -Hartree energ DENC   =    -13998.76416008
  -exchange      EXHF   =         0.00000000
  -V(xc)+E(xc)   XCENC  =      3166.71663710
  PAW double counting   =     97885.54969481   -96536.61409694
  entropy T*S    EENTRO =        -0.10899872
  eigenvalues    EBANDS =     -9757.80501344
  atomic energy  EATOM  =     82460.82817948
  Solvation  Ediel_sol  =         0.00000000
  ---------------------------------------------------
  free energy    TOTEN  =      -536.44077419 eV

  energy without entropy =     -536.33177546  energy(sigma->0) =     -536.38627483


--------------------------------------------------------------------------------------------------------




--------------------------------------- Iteration      1(  23)  ---------------------------------------


    POTLOK:  cpu time      0.0899: real time      0.0951
    SETDIJ:  cpu time      0.1702: real time      0.1702
     EDDAV:  cpu time     48.0660: real time     48.0825
       DOS:  cpu time      0.0009: real time      0.0009
    CHARGE:  cpu time      0.4471: real time      0.4472
    MIXING:  cpu time      0.0050: real time      0.0050
    --------------------------------------------
      LOOP:  cpu time     48.7791: real time     48.8008

 eigenvalue-minimisations  :  7744
 total energy-change (2. order) : 0.1889505E-04  (-0.6162702E-05)
 number of electron     769.0000000 magnetization 
 augmentation part        8.8238301 magnetization 

 Broyden mixing:
  rms(total) = 0.12175E-02    rms(broyden)= 0.12174E-02
  rms(prec ) = 0.17574E-02
  weight for this iteration     100.00

 eigenvalues of (default mixing * dielectric matrix)
  average eigenvalue GAMMA=   0.9153
  2.5454  1.9925  1.9925  1.4816  1.4816  1.1883  0.8452  0.8452  0.6270  0.6270
  0.5045  0.2527  0.2539  0.4195  0.4195  0.3370  0.3370  0.3242

 Free energy of the ion-electron system (eV)
  ---------------------------------------------------
  alpha Z        PSCENC =      3794.98599260
  Ewald energy   TEWEN  =    -67551.22900900
  -Hartree energ DENC   =    -13998.51235155
  -exchange      EXHF   =         0.00000000
  -V(xc)+E(xc)   XCENC  =      3166.70532797
  PAW double counting   =     97882.57782807   -96533.91437598
  entropy T*S    EENTRO =        -0.10901470
  eigenvalues    EBANDS =     -9757.77333219
  atomic energy  EATOM  =     82460.82817948
  Solvation  Ediel_sol  =         0.00000000
  ---------------------------------------------------
  free energy    TOTEN  =      -536.44075529 eV

  energy without entropy =     -536.33174059  energy(sigma->0) =     -536.38624794


--------------------------------------------------------------------------------------------------------




--------------------------------------- Iteration      1(  24)  ---------------------------------------


    POTLOK:  cpu time      0.0900: real time      0.0916
    SETDIJ:  cpu time      0.1715: real time      0.1715
     EDDAV:  cpu time     35.6763: real time     35.6882
       DOS:  cpu time      0.0008: real time      0.0008
    --------------------------------------------
      LOOP:  cpu time     35.9386: real time     35.9520

 eigenvalue-minimisations  :  5224
 total energy-change (2. order) : 0.1872540E-05  (-0.1701223E-05)
 number of electron     769.0000000 magnetization 
 augmentation part        8.8238301 magnetization 

 Free energy of the ion-electron system (eV)
  ---------------------------------------------------
  alpha Z        PSCENC =      3794.98599260
  Ewald energy   TEWEN  =    -67551.22900900
  -Hartree energ DENC   =    -13998.46094263
  -exchange      EXHF   =         0.00000000
  -V(xc)+E(xc)   XCENC  =      3166.70310108
  PAW double counting   =     97881.55611145   -96532.94753200
  entropy T*S    EENTRO =        -0.10901259
  eigenvalues    EBANDS =     -9757.76764183
  atomic energy  EATOM  =     82460.82817948
  Solvation  Ediel_sol  =         0.00000000
  ---------------------------------------------------
  free energy    TOTEN  =      -536.44075342 eV

  energy without entropy =     -536.33174083  energy(sigma->0) =     -536.38624712


--------------------------------------------------------------------------------------------------------




 average (electrostatic) potential at core
  the test charge radii are     1.0638  1.0703
  (the norm of the test charge is              1.0000)
       1 -74.0701       2 -74.2428       3 -74.3213       4 -73.9370       5 -74.0298
       6 -74.2906       7 -73.7830       8 -73.9145       9 -74.0100      10 -74.1847
      11 -74.0697      12 -74.0172      13 -74.0583      14 -74.2860      15 -74.1880
      16 -74.0022      17 -74.0460      18 -74.1224      19 -74.1697      20 -74.1709
      21 -74.1555      22 -73.8824      23 -74.3607      24 -74.0091      25 -74.1826
      26 -73.8267      27 -74.2506      28 -74.0390      29 -73.7649      30 -73.9250
      31 -74.1089      32 -73.9893      33 -74.1020      34 -74.1116      35 -74.1545
      36 -74.2635      37 -74.0747      38 -73.9875      39 -74.1624      40 -74.0519
      41 -74.0846      42 -74.2559      43 -74.1383      44 -74.0544      45 -73.9211
      46 -73.9959      47 -74.1393      48 -73.8914      49 -74.0234      50 -74.0193
      51 -73.9327      52 -74.2172      53 -74.2255      54 -73.9270      55 -74.2889
      56 -74.1863      57 -74.0260      58 -74.1373      59 -74.1755      60 -74.0417
      61 -74.0460      62 -74.2504      63 -74.0302      64 -79.3999
 
 
 
 E-fermi :   9.2698     XC(G=0): -11.2224     alpha+bet :-16.5132

 val. band max:        9.2687002306   @ k =   0.5000   0.5000   0.5000
 cond. band min:       9.2756644508   @ k =   0.5000  -0.0000   0.0000
 fundamental gap:      0.0069642202
 Fermi energy:         9.2697729085

 k-point     1 :       0.0000    0.0000    0.0000
  band No.  band energies     occupation 
      1     -45.5254      2.00000
      2     -39.4685      2.00000
      3     -39.4283      2.00000
      4     -39.4128      2.00000
      5     -39.3989      2.00000
      6     -39.3960      2.00000
      7     -39.3845      2.00000
      8     -39.3771      2.00000
      9     -39.3667      2.00000
     10     -39.3574      2.00000
     11     -39.3452      2.00000
     12     -39.3366      2.00000
     13     -39.3358      2.00000
     14     -39.3327      2.00000
     15     -39.3171      2.00000
     16     -39.3095      2.00000
     17     -39.3037      2.00000
     18     -39.2979      2.00000
     19     -39.2969      2.00000
     20     -39.2902      2.00000
     21     -39.2792      2.00000
     22     -39.2744      2.00000
     23     -39.2654      2.00000
     24     -39.2571      2.00000
     25     -39.2540      2.00000
     26     -39.2447      2.00000
     27     -39.2425      2.00000
     28     -39.2383      2.00000
     29     -39.2325      2.00000
     30     -39.2290      2.00000
     31     -39.2265      2.00000
     32     -39.2194      2.00000
     33     -39.2087      2.00000
     34     -39.2053      2.00000
     35     -39.1956      2.00000
     36     -39.1891      2.00000
     37     -39.1781      2.00000
     38     -39.1756      2.00000
     39     -39.1651      2.00000
     40     -39.1563      2.00000
     41     -39.1489      2.00000
     42     -39.1469      2.00000
     43     -39.1449      2.00000
     44     -39.1351      2.00000
     45     -39.1278      2.00000
     46     -39.1221      2.00000
     47     -39.1162      2.00000
     48     -39.1115      2.00000
     49     -39.1070      2.00000
     50     -39.1027      2.00000
     51     -39.0980      2.00000
     52     -39.0955      2.00000
     53     -39.0832      2.00000
     54     -39.0730      2.00000
     55     -39.0642      2.00000
     56     -39.0631      2.00000
     57     -39.0326      2.00000
     58     -39.0267      2.00000
     59     -39.0202      2.00000
     60     -39.0174      2.00000
     61     -39.0113      2.00000
     62     -38.9459      2.00000
     63     -38.9169      2.00000
     64     -38.9086      2.00000
     65     -21.6173      2.00000
     66     -21.5908      2.00000
     67     -21.5621      2.00000
     68     -18.0547      2.00000
     69     -18.0170      2.00000
     70     -17.9928      2.00000
     71     -17.9817      2.00000
     72     -17.9734      2.00000
     73     -17.9579      2.00000
     74     -17.9549      2.00000
     75     -17.9330      2.00000
     76     -17.9271      2.00000
     77     -17.9134      2.00000
     78     -17.9083      2.00000
     79     -17.8981      2.00000
     80     -17.8846      2.00000
     81     -17.8781      2.00000
     82     -17.8655      2.00000
     83     -17.8504      2.00000
     84     -17.8492      2.00000
     85     -17.8441      2.00000
     86     -17.8275      2.00000
     87     -17.8120      2.00000
     88     -17.8011      2.00000
     89     -17.7921      2.00000
     90     -17.7848      2.00000
     91     -17.7765      2.00000
     92     -17.7706      2.00000
     93     -17.7679      2.00000
     94     -17.7571      2.00000
     95     -17.7509      2.00000
     96     -17.7463      2.00000
     97     -17.7406      2.00000
     98     -17.7402      2.00000
     99     -17.7251      2.00000
    100     -17.7225      2.00000
    101     -17.7058      2.00000
    102     -17.7040      2.00000
    103     -17.7020      2.00000
    104     -17.6843      2.00000
    105     -17.6803      2.00000
    106     -17.6740      2.00000
    107     -17.6540      2.00000
    108     -17.6481      2.00000
    109     -17.6432      2.00000
    110     -17.6341      2.00000
    111     -17.6276      2.00000
    112     -17.6224      2.00000
    113     -17.6088      2.00000
    114     -17.6065      2.00000
    115     -17.6020      2.00000
    116     -17.5986      2.00000
    117     -17.5935      2.00000
    118     -17.5836      2.00000
    119     -17.5710      2.00000
    120     -17.5659      2.00000
    121     -17.5616      2.00000
    122     -17.5524      2.00000
    123     -17.5499      2.00000
    124     -17.5391      2.00000
    125     -17.5321      2.00000
    126     -17.5275      2.00000
    127     -17.5221      2.00000
    128     -17.5095      2.00000
    129     -17.5026      2.00000
    130     -17.4933      2.00000
    131     -17.4893      2.00000
    132     -17.4846      2.00000
    133     -17.4797      2.00000
    134     -17.4664      2.00000
    135     -17.4530      2.00000
    136     -17.4473      2.00000
    137     -17.4386      2.00000
    138     -17.4312      2.00000
    139     -17.4252      2.00000
    140     -17.4156      2.00000
    141     -17.4100      2.00000
    142     -17.4037      2.00000
    143     -17.3974      2.00000
    144     -17.3852      2.00000
    145     -17.3769      2.00000
    146     -17.3723      2.00000
    147     -17.3623      2.00000
    148     -17.3562      2.00000
    149     -17.3418      2.00000
    150     -17.3358      2.00000
    151     -17.3299      2.00000
    152     -17.3276      2.00000
    153     -17.3157      2.00000
    154     -17.3096      2.00000
    155     -17.3030      2.00000
    156     -17.2903      2.00000
    157     -17.2888      2.00000
    158     -17.2760      2.00000
    159     -17.2642      2.00000
    160     -17.2596      2.00000
    161     -17.2550      2.00000
    162     -17.2422      2.00000
    163     -17.2383      2.00000
    164     -17.2343      2.00000
    165     -17.2208      2.00000
    166     -17.2154      2.00000
    167     -17.2124      2.00000
    168     -17.2060      2.00000
    169     -17.1976      2.00000
    170     -17.1889      2.00000
    171     -17.1844      2.00000
    172     -17.1774      2.00000
    173     -17.1717      2.00000
    174     -17.1615      2.00000
    175     -17.1519      2.00000
    176     -17.1485      2.00000
    177     -17.1460      2.00000
    178     -17.1413      2.00000
    179     -17.1364      2.00000
    180     -17.1351      2.00000
    181     -17.1270      2.00000
    182     -17.1222      2.00000
    183     -17.1141      2.00000
    184     -17.1115      2.00000
    185     -17.1055      2.00000
    186     -17.0979      2.00000
    187     -17.0928      2.00000
    188     -17.0918      2.00000
    189     -17.0864      2.00000
    190     -17.0824      2.00000
    191     -17.0776      2.00000
    192     -17.0741      2.00000
    193     -17.0659      2.00000
    194     -17.0640      2.00000
    195     -17.0613      2.00000
    196     -17.0519      2.00000
    197     -17.0494      2.00000
    198     -17.0427      2.00000
    199     -17.0399      2.00000
    200     -17.0298      2.00000
    201     -17.0262      2.00000
    202     -17.0196      2.00000
    203     -17.0195      2.00000
    204     -17.0145      2.00000
    205     -17.0086      2.00000
    206     -17.0002      2.00000
    207     -16.9953      2.00000
    208     -16.9906      2.00000
    209     -16.9855      2.00000
    210     -16.9770      2.00000
    211     -16.9717      2.00000
    212     -16.9677      2.00000
    213     -16.9637      2.00000
    214     -16.9597      2.00000
    215     -16.9540      2.00000
    216     -16.9487      2.00000
    217     -16.9464      2.00000
    218     -16.9421      2.00000
    219     -16.9341      2.00000
    220     -16.9332      2.00000
    221     -16.9263      2.00000
    222     -16.9239      2.00000
    223     -16.9176      2.00000
    224     -16.9148      2.00000
    225     -16.9087      2.00000
    226     -16.9052      2.00000
    227     -16.8963      2.00000
    228     -16.8948      2.00000
    229     -16.8815      2.00000
    230     -16.8730      2.00000
    231     -16.8710      2.00000
    232     -16.8690      2.00000
    233     -16.8636      2.00000
    234     -16.8522      2.00000
    235     -16.8489      2.00000
    236     -16.8418      2.00000
    237     -16.8373      2.00000
    238     -16.8310      2.00000
    239     -16.8206      2.00000
    240     -16.8153      2.00000
    241     -16.8092      2.00000
    242     -16.8062      2.00000
    243     -16.7926      2.00000
    244     -16.7827      2.00000
    245     -16.7737      2.00000
    246     -16.7593      2.00000
    247     -16.7575      2.00000
    248     -16.7548      2.00000
    249     -16.7418      2.00000
    250     -16.7276      2.00000
    251     -16.7139      2.00000
    252     -16.7014      2.00000
    253     -16.6972      2.00000
    254     -16.6569      2.00000
    255     -16.6432      2.00000
    256     -16.6350      2.00000
    257       3.7177      2.00000
    258       4.9578      2.00000
    259       4.9776      2.00000
    260       5.2971      2.00000
    261       5.2997      2.00000
    262       5.4320      2.00000
    263       5.4577      2.00000
    264       6.1620      2.00000
    265       6.1717      2.00000
    266       6.1828      2.00000
    267       6.2214      2.00000
    268       6.2564      2.00000
    269       6.3121      2.00000
    270       6.3303      2.00000
    271       6.3584      2.00000
    272       6.3659      2.00000
    273       6.3772      2.00000
    274       6.3844      2.00000
    275       6.3964      2.00000
    276       6.4204      2.00000
    277       6.4308      2.00000
    278       6.4465      2.00000
    279       6.4727      2.00000
    280       6.4824      2.00000
    281       6.4870      2.00000
    282       6.5119      2.00000
    283       6.6400      2.00000
    284       6.6512      2.00000
    285       6.6823      2.00000
    286       6.7158      2.00000
    287       6.7411      2.00000
    288       6.7558      2.00000
    289       6.7636      2.00000
    290       6.7743      2.00000
    291       6.7866      2.00000
    292       6.8087      2.00000
    293       6.8277      2.00000
    294       6.8292      2.00000
    295       6.8561      2.00000
    296       6.8702      2.00000
    297       6.9302      2.00000
    298       6.9542      2.00000
    299       7.0135      2.00000
    300       7.0653      2.00000
    301       7.1008      2.00000
    302       7.1302      2.00000
    303       7.1460      2.00000
    304       7.1627      2.00000
    305       7.1951      2.00000
    306       7.2432      2.00000
    307       7.2523      2.00000
    308       7.2786      2.00000
    309       7.2870      2.00000
    310       7.3062      2.00000
    311       7.3200      2.00000
    312       7.3342      2.00000
    313       7.3563      2.00000
    314       7.3787      2.00000
    315       7.4024      2.00000
    316       7.4192      2.00000
    317       7.4355      2.00000
    318       7.4936      2.00000
    319       7.5574      2.00000
    320       7.5956      2.00000
    321       7.6412      2.00000
    322       7.6660      2.00000
    323       7.6900      2.00000
    324       7.7479      2.00000
    325       7.7658      2.00000
    326       7.8223      2.00000
    327       7.8431      2.00000
    328       7.8587      2.00000
    329       7.8727      2.00000
    330       7.8967      2.00000
    331       7.9370      2.00000
    332       7.9642      2.00000
    333       7.9953      2.00000
    334       8.0038      2.00000
    335       8.0549      2.00000
    336       8.0780      2.00000
    337       8.1229      2.00000
    338       8.1513      2.00000
    339       8.1807      2.00000
    340       8.2172      2.00000
    341       8.2260      2.00000
    342       8.2562      2.00000
    343       8.2780      2.00000
    344       8.3039      2.00000
    345       8.3168      2.00000
    346       8.3328      2.00000
    347       8.3563      2.00000
    348       8.3720      2.00000
    349       8.3752      2.00000
    350       8.4006      2.00000
    351       8.4174      2.00000
    352       8.4384      2.00000
    353       8.4554      2.00000
    354       8.4907      2.00000
    355       8.4972      2.00000
    356       8.5283      2.00000
    357       8.5543      2.00000
    358       8.5753      2.00000
    359       8.5903      2.00000
    360       8.5942      2.00000
    361       8.6163      2.00000
    362       8.6530      2.00000
    363       8.6872      2.00000
    364       8.6986      2.00000
    365       8.7261      2.00000
    366       8.7411      2.00000
    367       8.7537      2.00000
    368       8.7700      2.00000
    369       8.7910      2.00000
    370       8.8018      2.00000
    371       8.8212      2.00000
    372       8.8519      2.00000
    373       8.8745      2.00000
    374       8.8921      2.00000
    375       8.9513      2.00000
    376       8.9645      2.00000
    377       9.0156      2.00000
    378       9.0285      2.00000
    379       9.0924      2.00000
    380       9.1069      2.00000
    381       9.1428      1.99967
    382       9.1650      1.99695
    383       9.2226      1.81776
    384       9.2525      1.37498
    385       9.2816      0.73860
    386       9.2896      0.57486
    387       9.3105      0.24902
    388       9.3406      0.04527
    389       9.3525      0.01932
    390       9.3669      0.00603
    391       9.3764      0.00255
    392       9.4157      0.00004
    393       9.4238      0.00001
    394       9.4472      0.00000
    395       9.4800      0.00000
    396       9.4933      0.00000
    397       9.5122      0.00000
    398       9.5218      0.00000
    399       9.5395      0.00000
    400       9.5525      0.00000
    401       9.5832      0.00000
    402       9.5900      0.00000
    403       9.6138      0.00000
    404       9.6224      0.00000
    405       9.6431      0.00000
    406       9.6534      0.00000
    407       9.6902      0.00000
    408       9.7018      0.00000
    409       9.7336      0.00000
    410       9.7689      0.00000
    411       9.7840      0.00000
    412       9.8065      0.00000
    413       9.8154      0.00000
    414       9.8488      0.00000
    415       9.8704      0.00000
    416       9.9047      0.00000
    417       9.9097      0.00000
    418       9.9228      0.00000
    419       9.9377      0.00000
    420       9.9650      0.00000
    421      10.0122      0.00000
    422      10.0359      0.00000
    423      10.0682      0.00000
    424      10.0831      0.00000
    425      10.0857      0.00000
    426      10.1121      0.00000
    427      10.1343      0.00000
    428      10.1571      0.00000
    429      10.1620      0.00000
    430      10.1929      0.00000
    431      10.2022      0.00000
    432      10.2347      0.00000
    433      10.2492      0.00000
    434      10.2785      0.00000
    435      10.2986      0.00000
    436      10.3354      0.00000
    437      10.3454      0.00000
    438      10.3872      0.00000
    439      10.4026      0.00000
    440      10.4082      0.00000
    441      10.4689      0.00000
    442      10.5166      0.00000
    443      10.5396      0.00000
    444      10.5746      0.00000
    445      10.6002      0.00000
    446      10.6400      0.00000
    447      10.6465      0.00000
    448      10.6869      0.00000
    449      10.7048      0.00000
    450      10.7408      0.00000
    451      10.7705      0.00000
    452      10.7851      0.00000
    453      10.8164      0.00000
    454      10.8612      0.00000
    455      10.8785      0.00000
    456      10.9166      0.00000
    457      10.9319      0.00000
    458      10.9663      0.00000
    459      10.9919      0.00000
    460      11.0082      0.00000
    461      11.0237      0.00000
    462      11.0560      0.00000
    463      11.0632      0.00000
    464      11.1453      0.00000

 k-point     2 :       0.5000   -0.0000    0.0000
  band No.  band energies     occupation 
      1     -45.5254      2.00000
      2     -39.4679      2.00000
      3     -39.4274      2.00000
      4     -39.4150      2.00000
      5     -39.3997      2.00000
      6     -39.3959      2.00000
      7     -39.3846      2.00000
      8     -39.3771      2.00000
      9     -39.3665      2.00000
     10     -39.3572      2.00000
     11     -39.3455      2.00000
     12     -39.3368      2.00000
     13     -39.3344      2.00000
     14     -39.3303      2.00000
     15     -39.3196      2.00000
     16     -39.3090      2.00000
     17     -39.3026      2.00000
     18     -39.3000      2.00000
     19     -39.2967      2.00000
     20     -39.2899      2.00000
     21     -39.2793      2.00000
     22     -39.2745      2.00000
     23     -39.2669      2.00000
     24     -39.2564      2.00000
     25     -39.2528      2.00000
     26     -39.2439      2.00000
     27     -39.2411      2.00000
     28     -39.2385      2.00000
     29     -39.2344      2.00000
     30     -39.2308      2.00000
     31     -39.2260      2.00000
     32     -39.2174      2.00000
     33     -39.2091      2.00000
     34     -39.2050      2.00000
     35     -39.1962      2.00000
     36     -39.1896      2.00000
     37     -39.1806      2.00000
     38     -39.1728      2.00000
     39     -39.1651      2.00000
     40     -39.1540      2.00000
     41     -39.1505      2.00000
     42     -39.1485      2.00000
     43     -39.1452      2.00000
     44     -39.1347      2.00000
     45     -39.1273      2.00000
     46     -39.1225      2.00000
     47     -39.1168      2.00000
     48     -39.1084      2.00000
     49     -39.1072      2.00000
     50     -39.1043      2.00000
     51     -39.0994      2.00000
     52     -39.0942      2.00000
     53     -39.0837      2.00000
     54     -39.0724      2.00000
     55     -39.0642      2.00000
     56     -39.0632      2.00000
     57     -39.0325      2.00000
     58     -39.0268      2.00000
     59     -39.0200      2.00000
     60     -39.0175      2.00000
     61     -39.0113      2.00000
     62     -38.9459      2.00000
     63     -38.9169      2.00000
     64     -38.9086      2.00000
     65     -21.6173      2.00000
     66     -21.5908      2.00000
     67     -21.5621      2.00000
     68     -18.0441      2.00000
     69     -18.0080      2.00000
     70     -17.9913      2.00000
     71     -17.9776      2.00000
     72     -17.9677      2.00000
     73     -17.9554      2.00000
     74     -17.9508      2.00000
     75     -17.9309      2.00000
     76     -17.9239      2.00000
     77     -17.9091      2.00000
     78     -17.9035      2.00000
     79     -17.8904      2.00000
     80     -17.8790      2.00000
     81     -17.8732      2.00000
     82     -17.8713      2.00000
     83     -17.8585      2.00000
     84     -17.8503      2.00000
     85     -17.8346      2.00000
     86     -17.8274      2.00000
     87     -17.8268      2.00000
     88     -17.8163      2.00000
     89     -17.8031      2.00000
     90     -17.7977      2.00000
     91     -17.7881      2.00000
     92     -17.7809      2.00000
     93     -17.7774      2.00000
     94     -17.7637      2.00000
     95     -17.7599      2.00000
     96     -17.7479      2.00000
     97     -17.7412      2.00000
     98     -17.7213      2.00000
     99     -17.7205      2.00000
    100     -17.7169      2.00000
    101     -17.7099      2.00000
    102     -17.7060      2.00000
    103     -17.6979      2.00000
    104     -17.6850      2.00000
    105     -17.6732      2.00000
    106     -17.6620      2.00000
    107     -17.6595      2.00000
    108     -17.6545      2.00000
    109     -17.6479      2.00000
    110     -17.6407      2.00000
    111     -17.6327      2.00000
    112     -17.6257      2.00000
    113     -17.6179      2.00000
    114     -17.6102      2.00000
    115     -17.6062      2.00000
    116     -17.5973      2.00000
    117     -17.5889      2.00000
    118     -17.5830      2.00000
    119     -17.5776      2.00000
    120     -17.5760      2.00000
    121     -17.5594      2.00000
    122     -17.5556      2.00000
    123     -17.5488      2.00000
    124     -17.5410      2.00000
    125     -17.5304      2.00000
    126     -17.5262      2.00000
    127     -17.5149      2.00000
    128     -17.5139      2.00000
    129     -17.5074      2.00000
    130     -17.4948      2.00000
    131     -17.4844      2.00000
    132     -17.4767      2.00000
    133     -17.4724      2.00000
    134     -17.4676      2.00000
    135     -17.4613      2.00000
    136     -17.4552      2.00000
    137     -17.4452      2.00000
    138     -17.4267      2.00000
    139     -17.4259      2.00000
    140     -17.4203      2.00000
    141     -17.4135      2.00000
    142     -17.4050      2.00000
    143     -17.3975      2.00000
    144     -17.3926      2.00000
    145     -17.3818      2.00000
    146     -17.3685      2.00000
    147     -17.3612      2.00000
    148     -17.3536      2.00000
    149     -17.3473      2.00000
    150     -17.3409      2.00000
    151     -17.3269      2.00000
    152     -17.3224      2.00000
    153     -17.3085      2.00000
    154     -17.3021      2.00000
    155     -17.2957      2.00000
    156     -17.2899      2.00000
    157     -17.2837      2.00000
    158     -17.2720      2.00000
    159     -17.2647      2.00000
    160     -17.2507      2.00000
    161     -17.2490      2.00000
    162     -17.2428      2.00000
    163     -17.2390      2.00000
    164     -17.2333      2.00000
    165     -17.2267      2.00000
    166     -17.2206      2.00000
    167     -17.2058      2.00000
    168     -17.1942      2.00000
    169     -17.1880      2.00000
    170     -17.1834      2.00000
    171     -17.1790      2.00000
    172     -17.1714      2.00000
    173     -17.1695      2.00000
    174     -17.1624      2.00000
    175     -17.1532      2.00000
    176     -17.1483      2.00000
    177     -17.1446      2.00000
    178     -17.1427      2.00000
    179     -17.1391      2.00000
    180     -17.1293      2.00000
    181     -17.1231      2.00000
    182     -17.1213      2.00000
    183     -17.1147      2.00000
    184     -17.1105      2.00000
    185     -17.1048      2.00000
    186     -17.1020      2.00000
    187     -17.0962      2.00000
    188     -17.0899      2.00000
    189     -17.0867      2.00000
    190     -17.0860      2.00000
    191     -17.0801      2.00000
    192     -17.0663      2.00000
    193     -17.0634      2.00000
    194     -17.0607      2.00000
    195     -17.0559      2.00000
    196     -17.0542      2.00000
    197     -17.0472      2.00000
    198     -17.0401      2.00000
    199     -17.0350      2.00000
    200     -17.0320      2.00000
    201     -17.0277      2.00000
    202     -17.0217      2.00000
    203     -17.0139      2.00000
    204     -17.0063      2.00000
    205     -17.0014      2.00000
    206     -16.9941      2.00000
    207     -16.9890      2.00000
    208     -16.9873      2.00000
    209     -16.9843      2.00000
    210     -16.9797      2.00000
    211     -16.9745      2.00000
    212     -16.9719      2.00000
    213     -16.9651      2.00000
    214     -16.9625      2.00000
    215     -16.9567      2.00000
    216     -16.9507      2.00000
    217     -16.9450      2.00000
    218     -16.9440      2.00000
    219     -16.9371      2.00000
    220     -16.9319      2.00000
    221     -16.9310      2.00000
    222     -16.9253      2.00000
    223     -16.9187      2.00000
    224     -16.9114      2.00000
    225     -16.9052      2.00000
    226     -16.9024      2.00000
    227     -16.8924      2.00000
    228     -16.8892      2.00000
    229     -16.8837      2.00000
    230     -16.8797      2.00000
    231     -16.8724      2.00000
    232     -16.8680      2.00000
    233     -16.8642      2.00000
    234     -16.8560      2.00000
    235     -16.8519      2.00000
    236     -16.8490      2.00000
    237     -16.8397      2.00000
    238     -16.8352      2.00000
    239     -16.8175      2.00000
    240     -16.8170      2.00000
    241     -16.8078      2.00000
    242     -16.8021      2.00000
    243     -16.7982      2.00000
    244     -16.7868      2.00000
    245     -16.7770      2.00000
    246     -16.7612      2.00000
    247     -16.7599      2.00000
    248     -16.7565      2.00000
    249     -16.7405      2.00000
    250     -16.7338      2.00000
    251     -16.7131      2.00000
    252     -16.7015      2.00000
    253     -16.6977      2.00000
    254     -16.6580      2.00000
    255     -16.6464      2.00000
    256     -16.6394      2.00000
    257       4.0485      2.00000
    258       4.0656      2.00000
    259       5.5350      2.00000
    260       5.5573      2.00000
    261       5.5968      2.00000
    262       5.6254      2.00000
    263       5.6978      2.00000
    264       5.7126      2.00000
    265       5.7524      2.00000
    266       5.7714      2.00000
    267       6.1573      2.00000
    268       6.2047      2.00000
    269       6.4067      2.00000
    270       6.4247      2.00000
    271       6.4718      2.00000
    272       6.4909      2.00000
    273       6.4980      2.00000
    274       6.5203      2.00000
    275       6.5269      2.00000
    276       6.5315      2.00000
    277       6.5531      2.00000
    278       6.5693      2.00000
    279       6.5737      2.00000
    280       6.5974      2.00000
    281       6.6128      2.00000
    282       6.6154      2.00000
    283       6.6243      2.00000
    284       6.6334      2.00000
    285       6.6510      2.00000
    286       6.6616      2.00000
    287       6.6644      2.00000
    288       6.6798      2.00000
    289       6.6861      2.00000
    290       6.6988      2.00000
    291       6.7097      2.00000
    292       6.7399      2.00000
    293       6.7460      2.00000
    294       6.7575      2.00000
    295       6.8437      2.00000
    296       6.8601      2.00000
    297       6.8727      2.00000
    298       6.8959      2.00000
    299       6.9022      2.00000
    300       6.9401      2.00000
    301       6.9640      2.00000
    302       6.9662      2.00000
    303       7.0126      2.00000
    304       7.0362      2.00000
    305       7.1013      2.00000
    306       7.1231      2.00000
    307       7.1511      2.00000
    308       7.1665      2.00000
    309       7.1881      2.00000
    310       7.2030      2.00000
    311       7.2391      2.00000
    312       7.3085      2.00000
    313       7.3961      2.00000
    314       7.4594      2.00000
    315       7.4950      2.00000
    316       7.5234      2.00000
    317       7.5434      2.00000
    318       7.5697      2.00000
    319       7.6075      2.00000
    320       7.6641      2.00000
    321       7.7057      2.00000
    322       7.7361      2.00000
    323       7.7836      2.00000
    324       7.8132      2.00000
    325       7.8162      2.00000
    326       7.8357      2.00000
    327       7.8666      2.00000
    328       7.9073      2.00000
    329       7.9450      2.00000
    330       7.9569      2.00000
    331       7.9824      2.00000
    332       8.0124      2.00000
    333       8.0371      2.00000
    334       8.0453      2.00000
    335       8.0696      2.00000
    336       8.0989      2.00000
    337       8.1053      2.00000
    338       8.1355      2.00000
    339       8.1572      2.00000
    340       8.1884      2.00000
    341       8.1924      2.00000
    342       8.2151      2.00000
    343       8.2468      2.00000
    344       8.2592      2.00000
    345       8.2774      2.00000
    346       8.2884      2.00000
    347       8.2960      2.00000
    348       8.3158      2.00000
    349       8.3497      2.00000
    350       8.3680      2.00000
    351       8.3914      2.00000
    352       8.3983      2.00000
    353       8.4059      2.00000
    354       8.4321      2.00000
    355       8.4379      2.00000
    356       8.4600      2.00000
    357       8.5076      2.00000
    358       8.5177      2.00000
    359       8.5294      2.00000
    360       8.5631      2.00000
    361       8.5945      2.00000
    362       8.6119      2.00000
    363       8.6245      2.00000
    364       8.6547      2.00000
    365       8.6764      2.00000
    366       8.7052      2.00000
    367       8.7407      2.00000
    368       8.7683      2.00000
    369       8.7891      2.00000
    370       8.8685      2.00000
    371       8.8764      2.00000
    372       8.9217      2.00000
    373       8.9704      2.00000
    374       8.9880      2.00000
    375       9.0170      2.00000
    376       9.0656      2.00000
    377       9.0868      2.00000
    378       9.1074      2.00000
    379       9.1322      1.99990
    380       9.1781      1.99048
    381       9.1813      1.98765
    382       9.1930      1.97020
    383       9.2171      1.86374
    384       9.2319      1.71549
    385       9.2664      1.07615
    386       9.2757      0.86765
    387       9.2933      0.50517
    388       9.3069      0.29309
    389       9.3378      0.05424
    390       9.3499      0.02347
    391       9.3624      0.00880
    392       9.3956      0.00037
    393       9.4170      0.00003
    394       9.4276      0.00001
    395       9.4549      0.00000
    396       9.4788      0.00000
    397       9.4949      0.00000
    398       9.5233      0.00000
    399       9.5521      0.00000
    400       9.5808      0.00000
    401       9.6105      0.00000
    402       9.6179      0.00000
    403       9.6503      0.00000
    404       9.6667      0.00000
    405       9.6872      0.00000
    406       9.7007      0.00000
    407       9.7252      0.00000
    408       9.7446      0.00000
    409       9.7469      0.00000
    410       9.7900      0.00000
    411       9.8193      0.00000
    412       9.8604      0.00000
    413       9.8803      0.00000
    414       9.9051      0.00000
    415       9.9180      0.00000
    416       9.9453      0.00000
    417       9.9595      0.00000
    418       9.9958      0.00000
    419      10.0152      0.00000
    420      10.0253      0.00000
    421      10.0341      0.00000
    422      10.0473      0.00000
    423      10.0938      0.00000
    424      10.1006      0.00000
    425      10.1131      0.00000
    426      10.1519      0.00000
    427      10.1671      0.00000
    428      10.1829      0.00000
    429      10.2092      0.00000
    430      10.2111      0.00000
    431      10.2253      0.00000
    432      10.2644      0.00000
    433      10.2893      0.00000
    434      10.3390      0.00000
    435      10.3507      0.00000
    436      10.3807      0.00000
    437      10.4035      0.00000
    438      10.4161      0.00000
    439      10.4337      0.00000
    440      10.4444      0.00000
    441      10.4627      0.00000
    442      10.4811      0.00000
    443      10.4960      0.00000
    444      10.5156      0.00000
    445      10.5351      0.00000
    446      10.5636      0.00000
    447      10.5969      0.00000
    448      10.6318      0.00000
    449      10.6519      0.00000
    450      10.6825      0.00000
    451      10.7036      0.00000
    452      10.7133      0.00000
    453      10.7644      0.00000
    454      10.7713      0.00000
    455      10.8004      0.00000
    456      10.8241      0.00000
    457      10.8465      0.00000
    458      10.8554      0.00000
    459      10.8683      0.00000
    460      10.8922      0.00000
    461      10.9142      0.00000
    462      10.9421      0.00000
    463      10.9649      0.00000
    464      11.0366      0.00000

 k-point     3 :      -0.0000    0.5000    0.0000
  band No.  band energies     occupation 
      1     -45.5254      2.00000
      2     -39.4669      2.00000
      3     -39.4286      2.00000
      4     -39.4103      2.00000
      5     -39.4035      2.00000
      6     -39.3955      2.00000
      7     -39.3851      2.00000
      8     -39.3770      2.00000
      9     -39.3667      2.00000
     10     -39.3579      2.00000
     11     -39.3428      2.00000
     12     -39.3411      2.00000
     13     -39.3342      2.00000
     14     -39.3296      2.00000
     15     -39.3256      2.00000
     16     -39.3065      2.00000
     17     -39.3025      2.00000
     18     -39.2975      2.00000
     19     -39.2938      2.00000
     20     -39.2915      2.00000
     21     -39.2790      2.00000
     22     -39.2744      2.00000
     23     -39.2677      2.00000
     24     -39.2586      2.00000
     25     -39.2485      2.00000
     26     -39.2448      2.00000
     27     -39.2421      2.00000
     28     -39.2373      2.00000
     29     -39.2337      2.00000
     30     -39.2307      2.00000
     31     -39.2265      2.00000
     32     -39.2204      2.00000
     33     -39.2080      2.00000
     34     -39.2035      2.00000
     35     -39.1951      2.00000
     36     -39.1886      2.00000
     37     -39.1779      2.00000
     38     -39.1744      2.00000
     39     -39.1666      2.00000
     40     -39.1562      2.00000
     41     -39.1490      2.00000
     42     -39.1482      2.00000
     43     -39.1454      2.00000
     44     -39.1343      2.00000
     45     -39.1286      2.00000
     46     -39.1221      2.00000
     47     -39.1160      2.00000
     48     -39.1122      2.00000
     49     -39.1070      2.00000
     50     -39.1025      2.00000
     51     -39.0977      2.00000
     52     -39.0953      2.00000
     53     -39.0834      2.00000
     54     -39.0730      2.00000
     55     -39.0646      2.00000
     56     -39.0633      2.00000
     57     -39.0322      2.00000
     58     -39.0267      2.00000
     59     -39.0200      2.00000
     60     -39.0173      2.00000
     61     -39.0115      2.00000
     62     -38.9459      2.00000
     63     -38.9169      2.00000
     64     -38.9086      2.00000
     65     -21.6173      2.00000
     66     -21.5908      2.00000
     67     -21.5621      2.00000
     68     -18.0415      2.00000
     69     -17.9936      2.00000
     70     -17.9750      2.00000
     71     -17.9720      2.00000
     72     -17.9607      2.00000
     73     -17.9512      2.00000
     74     -17.9383      2.00000
     75     -17.9201      2.00000
     76     -17.9189      2.00000
     77     -17.9107      2.00000
     78     -17.9057      2.00000
     79     -17.8946      2.00000
     80     -17.8859      2.00000
     81     -17.8769      2.00000
     82     -17.8667      2.00000
     83     -17.8531      2.00000
     84     -17.8475      2.00000
     85     -17.8415      2.00000
     86     -17.8369      2.00000
     87     -17.8299      2.00000
     88     -17.8252      2.00000
     89     -17.8125      2.00000
     90     -17.8047      2.00000
     91     -17.8024      2.00000
     92     -17.7874      2.00000
     93     -17.7794      2.00000
     94     -17.7718      2.00000
     95     -17.7677      2.00000
     96     -17.7572      2.00000
     97     -17.7486      2.00000
     98     -17.7429      2.00000
     99     -17.7382      2.00000
    100     -17.7133      2.00000
    101     -17.7119      2.00000
    102     -17.7092      2.00000
    103     -17.6890      2.00000
    104     -17.6878      2.00000
    105     -17.6803      2.00000
    106     -17.6772      2.00000
    107     -17.6651      2.00000
    108     -17.6608      2.00000
    109     -17.6494      2.00000
    110     -17.6450      2.00000
    111     -17.6324      2.00000
    112     -17.6268      2.00000
    113     -17.6234      2.00000
    114     -17.6122      2.00000
    115     -17.5966      2.00000
    116     -17.5921      2.00000
    117     -17.5850      2.00000
    118     -17.5819      2.00000
    119     -17.5770      2.00000
    120     -17.5666      2.00000
    121     -17.5647      2.00000
    122     -17.5604      2.00000
    123     -17.5479      2.00000
    124     -17.5443      2.00000
    125     -17.5356      2.00000
    126     -17.5349      2.00000
    127     -17.5050      2.00000
    128     -17.5025      2.00000
    129     -17.4938      2.00000
    130     -17.4912      2.00000
    131     -17.4823      2.00000
    132     -17.4735      2.00000
    133     -17.4707      2.00000
    134     -17.4536      2.00000
    135     -17.4449      2.00000
    136     -17.4426      2.00000
    137     -17.4358      2.00000
    138     -17.4264      2.00000
    139     -17.4190      2.00000
    140     -17.4106      2.00000
    141     -17.3981      2.00000
    142     -17.3965      2.00000
    143     -17.3872      2.00000
    144     -17.3822      2.00000
    145     -17.3709      2.00000
    146     -17.3635      2.00000
    147     -17.3605      2.00000
    148     -17.3515      2.00000
    149     -17.3473      2.00000
    150     -17.3330      2.00000
    151     -17.3269      2.00000
    152     -17.3179      2.00000
    153     -17.3167      2.00000
    154     -17.3053      2.00000
    155     -17.2989      2.00000
    156     -17.2892      2.00000
    157     -17.2869      2.00000
    158     -17.2812      2.00000
    159     -17.2673      2.00000
    160     -17.2640      2.00000
    161     -17.2561      2.00000
    162     -17.2395      2.00000
    163     -17.2368      2.00000
    164     -17.2336      2.00000
    165     -17.2251      2.00000
    166     -17.2200      2.00000
    167     -17.2127      2.00000
    168     -17.2073      2.00000
    169     -17.1963      2.00000
    170     -17.1890      2.00000
    171     -17.1800      2.00000
    172     -17.1724      2.00000
    173     -17.1708      2.00000
    174     -17.1610      2.00000
    175     -17.1564      2.00000
    176     -17.1541      2.00000
    177     -17.1515      2.00000
    178     -17.1327      2.00000
    179     -17.1305      2.00000
    180     -17.1271      2.00000
    181     -17.1225      2.00000
    182     -17.1192      2.00000
    183     -17.1124      2.00000
    184     -17.1031      2.00000
    185     -17.0994      2.00000
    186     -17.0984      2.00000
    187     -17.0952      2.00000
    188     -17.0920      2.00000
    189     -17.0864      2.00000
    190     -17.0808      2.00000
    191     -17.0760      2.00000
    192     -17.0721      2.00000
    193     -17.0663      2.00000
    194     -17.0658      2.00000
    195     -17.0551      2.00000
    196     -17.0523      2.00000
    197     -17.0480      2.00000
    198     -17.0441      2.00000
    199     -17.0371      2.00000
    200     -17.0314      2.00000
    201     -17.0257      2.00000
    202     -17.0198      2.00000
    203     -17.0139      2.00000
    204     -17.0117      2.00000
    205     -17.0059      2.00000
    206     -17.0006      2.00000
    207     -16.9979      2.00000
    208     -16.9895      2.00000
    209     -16.9855      2.00000
    210     -16.9818      2.00000
    211     -16.9775      2.00000
    212     -16.9721      2.00000
    213     -16.9676      2.00000
    214     -16.9644      2.00000
    215     -16.9598      2.00000
    216     -16.9575      2.00000
    217     -16.9460      2.00000
    218     -16.9408      2.00000
    219     -16.9353      2.00000
    220     -16.9315      2.00000
    221     -16.9287      2.00000
    222     -16.9244      2.00000
    223     -16.9167      2.00000
    224     -16.9156      2.00000
    225     -16.9096      2.00000
    226     -16.9012      2.00000
    227     -16.8946      2.00000
    228     -16.8913      2.00000
    229     -16.8805      2.00000
    230     -16.8767      2.00000
    231     -16.8727      2.00000
    232     -16.8652      2.00000
    233     -16.8579      2.00000
    234     -16.8561      2.00000
    235     -16.8530      2.00000
    236     -16.8415      2.00000
    237     -16.8355      2.00000
    238     -16.8285      2.00000
    239     -16.8251      2.00000
    240     -16.8164      2.00000
    241     -16.8104      2.00000
    242     -16.8050      2.00000
    243     -16.7988      2.00000
    244     -16.7816      2.00000
    245     -16.7755      2.00000
    246     -16.7663      2.00000
    247     -16.7592      2.00000
    248     -16.7561      2.00000
    249     -16.7387      2.00000
    250     -16.7299      2.00000
    251     -16.7076      2.00000
    252     -16.7041      2.00000
    253     -16.6954      2.00000
    254     -16.6686      2.00000
    255     -16.6469      2.00000
    256     -16.6367      2.00000
    257       4.1517      2.00000
    258       4.1821      2.00000
    259       5.2584      2.00000
    260       5.2813      2.00000
    261       5.2996      2.00000
    262       5.3169      2.00000
    263       5.7977      2.00000
    264       5.8035      2.00000
    265       5.8233      2.00000
    266       5.8614      2.00000
    267       6.3504      2.00000
    268       6.3809      2.00000
    269       6.3899      2.00000
    270       6.4118      2.00000
    271       6.4168      2.00000
    272       6.4377      2.00000
    273       6.4532      2.00000
    274       6.4623      2.00000
    275       6.4771      2.00000
    276       6.4934      2.00000
    277       6.4990      2.00000
    278       6.5122      2.00000
    279       6.5142      2.00000
    280       6.5488      2.00000
    281       6.6029      2.00000
    282       6.6286      2.00000
    283       6.6497      2.00000
    284       6.6622      2.00000
    285       6.6826      2.00000
    286       6.7025      2.00000
    287       6.7467      2.00000
    288       6.7662      2.00000
    289       6.7919      2.00000
    290       6.8032      2.00000
    291       6.8809      2.00000
    292       6.8961      2.00000
    293       6.9043      2.00000
    294       6.9382      2.00000
    295       6.9715      2.00000
    296       6.9860      2.00000
    297       7.0020      2.00000
    298       7.0246      2.00000
    299       7.0440      2.00000
    300       7.0567      2.00000
    301       7.0720      2.00000
    302       7.0954      2.00000
    303       7.1079      2.00000
    304       7.1323      2.00000
    305       7.1437      2.00000
    306       7.1602      2.00000
    307       7.1646      2.00000
    308       7.1853      2.00000
    309       7.1935      2.00000
    310       7.2094      2.00000
    311       7.2310      2.00000
    312       7.2395      2.00000
    313       7.2782      2.00000
    314       7.2959      2.00000
    315       7.3127      2.00000
    316       7.3587      2.00000
    317       7.3622      2.00000
    318       7.3709      2.00000
    319       7.3829      2.00000
    320       7.4087      2.00000
    321       7.4258      2.00000
    322       7.4446      2.00000
    323       7.4984      2.00000
    324       7.5497      2.00000
    325       7.5782      2.00000
    326       7.6568      2.00000
    327       7.8015      2.00000
    328       7.8869      2.00000
    329       7.9244      2.00000
    330       7.9390      2.00000
    331       7.9901      2.00000
    332       7.9994      2.00000
    333       8.0324      2.00000
    334       8.0465      2.00000
    335       8.0907      2.00000
    336       8.0997      2.00000
    337       8.1272      2.00000
    338       8.1557      2.00000
    339       8.2046      2.00000
    340       8.2094      2.00000
    341       8.2336      2.00000
    342       8.2556      2.00000
    343       8.2983      2.00000
    344       8.3019      2.00000
    345       8.3292      2.00000
    346       8.3319      2.00000
    347       8.3633      2.00000
    348       8.3816      2.00000
    349       8.4023      2.00000
    350       8.4207      2.00000
    351       8.4514      2.00000
    352       8.4771      2.00000
    353       8.4913      2.00000
    354       8.5138      2.00000
    355       8.5312      2.00000
    356       8.5575      2.00000
    357       8.5925      2.00000
    358       8.6036      2.00000
    359       8.6264      2.00000
    360       8.6659      2.00000
    361       8.6697      2.00000
    362       8.7018      2.00000
    363       8.7071      2.00000
    364       8.7326      2.00000
    365       8.7512      2.00000
    366       8.7757      2.00000
    367       8.7842      2.00000
    368       8.8064      2.00000
    369       8.8419      2.00000
    370       8.8838      2.00000
    371       8.8997      2.00000
    372       8.9097      2.00000
    373       8.9497      2.00000
    374       8.9797      2.00000
    375       8.9925      2.00000
    376       9.0125      2.00000
    377       9.0751      2.00000
    378       9.0796      2.00000
    379       9.1129      1.99999
    380       9.1214      1.99997
    381       9.1681      1.99599
    382       9.2031      1.94059
    383       9.2155      1.87530
    384       9.2409      1.58666
    385       9.2838      0.69201
    386       9.3054      0.31298
    387       9.3254      0.11593
    388       9.3347      0.06639
    389       9.3551      0.01584
    390       9.3822      0.00147
    391       9.3984      0.00027
    392       9.4256      0.00001
    393       9.4416      0.00000
    394       9.4646      0.00000
    395       9.5092      0.00000
    396       9.5363      0.00000
    397       9.5634      0.00000
    398       9.6018      0.00000
    399       9.6293      0.00000
    400       9.6400      0.00000
    401       9.6711      0.00000
    402       9.7087      0.00000
    403       9.7182      0.00000
    404       9.7313      0.00000
    405       9.7415      0.00000
    406       9.7579      0.00000
    407       9.7857      0.00000
    408       9.7968      0.00000
    409       9.8196      0.00000
    410       9.8460      0.00000
    411       9.8566      0.00000
    412       9.8692      0.00000
    413       9.8792      0.00000
    414       9.9039      0.00000
    415       9.9523      0.00000
    416       9.9649      0.00000
    417       9.9682      0.00000
    418       9.9948      0.00000
    419      10.0225      0.00000
    420      10.0361      0.00000
    421      10.0440      0.00000
    422      10.0520      0.00000
    423      10.0772      0.00000
    424      10.0813      0.00000
    425      10.1002      0.00000
    426      10.1333      0.00000
    427      10.1567      0.00000
    428      10.1886      0.00000
    429      10.1988      0.00000
    430      10.2143      0.00000
    431      10.2421      0.00000
    432      10.2591      0.00000
    433      10.2723      0.00000
    434      10.3067      0.00000
    435      10.3409      0.00000
    436      10.3591      0.00000
    437      10.3619      0.00000
    438      10.3833      0.00000
    439      10.4031      0.00000
    440      10.4473      0.00000
    441      10.4604      0.00000
    442      10.4765      0.00000
    443      10.4849      0.00000
    444      10.5156      0.00000
    445      10.5317      0.00000
    446      10.5609      0.00000
    447      10.5898      0.00000
    448      10.6110      0.00000
    449      10.6228      0.00000
    450      10.6507      0.00000
    451      10.6871      0.00000
    452      10.7012      0.00000
    453      10.7069      0.00000
    454      10.7279      0.00000
    455      10.7493      0.00000
    456      10.7658      0.00000
    457      10.7744      0.00000
    458      10.8024      0.00000
    459      10.8222      0.00000
    460      10.8546      0.00000
    461      10.8979      0.00000
    462      10.9046      0.00000
    463      10.9315      0.00000
    464      10.9829      0.00000

 k-point     4 :       0.5000    0.5000    0.0000
  band No.  band energies     occupation 
      1     -45.5254      2.00000
      2     -39.4665      2.00000
      3     -39.4275      2.00000
      4     -39.4118      2.00000
      5     -39.4031      2.00000
      6     -39.3971      2.00000
      7     -39.3851      2.00000
      8     -39.3771      2.00000
      9     -39.3663      2.00000
     10     -39.3593      2.00000
     11     -39.3429      2.00000
     12     -39.3404      2.00000
     13     -39.3342      2.00000
     14     -39.3318      2.00000
     15     -39.3205      2.00000
     16     -39.3050      2.00000
     17     -39.3025      2.00000
     18     -39.2985      2.00000
     19     -39.2953      2.00000
     20     -39.2917      2.00000
     21     -39.2782      2.00000
     22     -39.2757      2.00000
     23     -39.2684      2.00000
     24     -39.2578      2.00000
     25     -39.2475      2.00000
     26     -39.2441      2.00000
     27     -39.2406      2.00000
     28     -39.2389      2.00000
     29     -39.2348      2.00000
     30     -39.2317      2.00000
     31     -39.2272      2.00000
     32     -39.2170      2.00000
     33     -39.2083      2.00000
     34     -39.2033      2.00000
     35     -39.1962      2.00000
     36     -39.1895      2.00000
     37     -39.1799      2.00000
     38     -39.1725      2.00000
     39     -39.1656      2.00000
     40     -39.1540      2.00000
     41     -39.1512      2.00000
     42     -39.1491      2.00000
     43     -39.1461      2.00000
     44     -39.1344      2.00000
     45     -39.1278      2.00000
     46     -39.1224      2.00000
     47     -39.1166      2.00000
     48     -39.1102      2.00000
     49     -39.1070      2.00000
     50     -39.1033      2.00000
     51     -39.0988      2.00000
     52     -39.0943      2.00000
     53     -39.0839      2.00000
     54     -39.0727      2.00000
     55     -39.0646      2.00000
     56     -39.0630      2.00000
     57     -39.0324      2.00000
     58     -39.0267      2.00000
     59     -39.0198      2.00000
     60     -39.0174      2.00000
     61     -39.0115      2.00000
     62     -38.9459      2.00000
     63     -38.9169      2.00000
     64     -38.9086      2.00000
     65     -21.6173      2.00000
     66     -21.5908      2.00000
     67     -21.5621      2.00000
     68     -18.0365      2.00000
     69     -17.9803      2.00000
     70     -17.9776      2.00000
     71     -17.9665      2.00000
     72     -17.9572      2.00000
     73     -17.9488      2.00000
     74     -17.9392      2.00000
     75     -17.9264      2.00000
     76     -17.9239      2.00000
     77     -17.9020      2.00000
     78     -17.8996      2.00000
     79     -17.8953      2.00000
     80     -17.8836      2.00000
     81     -17.8699      2.00000
     82     -17.8630      2.00000
     83     -17.8568      2.00000
     84     -17.8420      2.00000
     85     -17.8347      2.00000
     86     -17.8318      2.00000
     87     -17.8304      2.00000
     88     -17.8175      2.00000
     89     -17.8096      2.00000
     90     -17.8066      2.00000
     91     -17.7982      2.00000
     92     -17.7819      2.00000
     93     -17.7740      2.00000
     94     -17.7654      2.00000
     95     -17.7570      2.00000
     96     -17.7553      2.00000
     97     -17.7486      2.00000
     98     -17.7421      2.00000
     99     -17.7383      2.00000
    100     -17.7349      2.00000
    101     -17.7274      2.00000
    102     -17.7220      2.00000
    103     -17.7186      2.00000
    104     -17.6948      2.00000
    105     -17.6912      2.00000
    106     -17.6839      2.00000
    107     -17.6807      2.00000
    108     -17.6677      2.00000
    109     -17.6575      2.00000
    110     -17.6470      2.00000
    111     -17.6336      2.00000
    112     -17.6247      2.00000
    113     -17.6147      2.00000
    114     -17.6111      2.00000
    115     -17.6053      2.00000
    116     -17.6030      2.00000
    117     -17.5926      2.00000
    118     -17.5869      2.00000
    119     -17.5769      2.00000
    120     -17.5722      2.00000
    121     -17.5698      2.00000
    122     -17.5599      2.00000
    123     -17.5473      2.00000
    124     -17.5419      2.00000
    125     -17.5354      2.00000
    126     -17.5253      2.00000
    127     -17.5231      2.00000
    128     -17.5104      2.00000
    129     -17.5002      2.00000
    130     -17.4864      2.00000
    131     -17.4802      2.00000
    132     -17.4771      2.00000
    133     -17.4749      2.00000
    134     -17.4649      2.00000
    135     -17.4521      2.00000
    136     -17.4458      2.00000
    137     -17.4417      2.00000
    138     -17.4339      2.00000
    139     -17.4223      2.00000
    140     -17.4155      2.00000
    141     -17.4143      2.00000
    142     -17.3978      2.00000
    143     -17.3890      2.00000
    144     -17.3798      2.00000
    145     -17.3717      2.00000
    146     -17.3567      2.00000
    147     -17.3455      2.00000
    148     -17.3385      2.00000
    149     -17.3291      2.00000
    150     -17.3274      2.00000
    151     -17.3158      2.00000
    152     -17.3101      2.00000
    153     -17.3054      2.00000
    154     -17.2948      2.00000
    155     -17.2851      2.00000
    156     -17.2805      2.00000
    157     -17.2766      2.00000
    158     -17.2660      2.00000
    159     -17.2603      2.00000
    160     -17.2523      2.00000
    161     -17.2475      2.00000
    162     -17.2428      2.00000
    163     -17.2368      2.00000
    164     -17.2305      2.00000
    165     -17.2230      2.00000
    166     -17.2176      2.00000
    167     -17.2116      2.00000
    168     -17.2025      2.00000
    169     -17.1924      2.00000
    170     -17.1892      2.00000
    171     -17.1819      2.00000
    172     -17.1709      2.00000
    173     -17.1674      2.00000
    174     -17.1640      2.00000
    175     -17.1533      2.00000
    176     -17.1508      2.00000
    177     -17.1491      2.00000
    178     -17.1430      2.00000
    179     -17.1383      2.00000
    180     -17.1321      2.00000
    181     -17.1197      2.00000
    182     -17.1177      2.00000
    183     -17.1142      2.00000
    184     -17.1028      2.00000
    185     -17.1001      2.00000
    186     -17.0982      2.00000
    187     -17.0913      2.00000
    188     -17.0860      2.00000
    189     -17.0816      2.00000
    190     -17.0778      2.00000
    191     -17.0748      2.00000
    192     -17.0735      2.00000
    193     -17.0652      2.00000
    194     -17.0615      2.00000
    195     -17.0554      2.00000
    196     -17.0511      2.00000
    197     -17.0449      2.00000
    198     -17.0421      2.00000
    199     -17.0354      2.00000
    200     -17.0307      2.00000
    201     -17.0298      2.00000
    202     -17.0188      2.00000
    203     -17.0169      2.00000
    204     -17.0125      2.00000
    205     -17.0059      2.00000
    206     -16.9990      2.00000
    207     -16.9945      2.00000
    208     -16.9907      2.00000
    209     -16.9858      2.00000
    210     -16.9803      2.00000
    211     -16.9761      2.00000
    212     -16.9696      2.00000
    213     -16.9680      2.00000
    214     -16.9649      2.00000
    215     -16.9620      2.00000
    216     -16.9577      2.00000
    217     -16.9489      2.00000
    218     -16.9439      2.00000
    219     -16.9357      2.00000
    220     -16.9325      2.00000
    221     -16.9301      2.00000
    222     -16.9250      2.00000
    223     -16.9185      2.00000
    224     -16.9169      2.00000
    225     -16.9082      2.00000
    226     -16.9046      2.00000
    227     -16.8964      2.00000
    228     -16.8894      2.00000
    229     -16.8848      2.00000
    230     -16.8807      2.00000
    231     -16.8766      2.00000
    232     -16.8608      2.00000
    233     -16.8603      2.00000
    234     -16.8565      2.00000
    235     -16.8499      2.00000
    236     -16.8450      2.00000
    237     -16.8436      2.00000
    238     -16.8313      2.00000
    239     -16.8252      2.00000
    240     -16.8182      2.00000
    241     -16.8119      2.00000
    242     -16.8063      2.00000
    243     -16.7965      2.00000
    244     -16.7851      2.00000
    245     -16.7745      2.00000
    246     -16.7728      2.00000
    247     -16.7604      2.00000
    248     -16.7514      2.00000
    249     -16.7459      2.00000
    250     -16.7308      2.00000
    251     -16.7103      2.00000
    252     -16.7038      2.00000
    253     -16.6945      2.00000
    254     -16.6655      2.00000
    255     -16.6468      2.00000
    256     -16.6419      2.00000
    257       4.4450      2.00000
    258       4.4756      2.00000
    259       4.4948      2.00000
    260       4.5106      2.00000
    261       6.0072      2.00000
    262       6.0097      2.00000
    263       6.0371      2.00000
    264       6.0406      2.00000
    265       6.0640      2.00000
    266       6.1037      2.00000
    267       6.1044      2.00000
    268       6.1102      2.00000
    269       6.1942      2.00000
    270       6.2282      2.00000
    271       6.2489      2.00000
    272       6.2710      2.00000
    273       6.5037      2.00000
    274       6.5229      2.00000
    275       6.5315      2.00000
    276       6.5499      2.00000
    277       6.5686      2.00000
    278       6.5864      2.00000
    279       6.5989      2.00000
    280       6.6310      2.00000
    281       6.6337      2.00000
    282       6.6444      2.00000
    283       6.6748      2.00000
    284       6.6882      2.00000
    285       6.7062      2.00000
    286       6.7145      2.00000
    287       6.7499      2.00000
    288       6.7559      2.00000
    289       6.7618      2.00000
    290       6.7892      2.00000
    291       6.7964      2.00000
    292       6.8172      2.00000
    293       6.8625      2.00000
    294       6.8744      2.00000
    295       6.8848      2.00000
    296       6.9143      2.00000
    297       6.9393      2.00000
    298       6.9511      2.00000
    299       6.9667      2.00000
    300       6.9836      2.00000
    301       7.0025      2.00000
    302       7.0220      2.00000
    303       7.0583      2.00000
    304       7.0623      2.00000
    305       7.0749      2.00000
    306       7.1162      2.00000
    307       7.1385      2.00000
    308       7.1537      2.00000
    309       7.1696      2.00000
    310       7.1870      2.00000
    311       7.1990      2.00000
    312       7.2438      2.00000
    313       7.2815      2.00000
    314       7.3155      2.00000
    315       7.3531      2.00000
    316       7.3633      2.00000
    317       7.3726      2.00000
    318       7.3992      2.00000
    319       7.4265      2.00000
    320       7.4371      2.00000
    321       7.4500      2.00000
    322       7.4750      2.00000
    323       7.4961      2.00000
    324       7.5245      2.00000
    325       7.5415      2.00000
    326       7.5670      2.00000
    327       7.5863      2.00000
    328       7.6185      2.00000
    329       7.6383      2.00000
    330       7.6777      2.00000
    331       7.7761      2.00000
    332       7.8168      2.00000
    333       8.0648      2.00000
    334       8.0864      2.00000
    335       8.1483      2.00000
    336       8.1762      2.00000
    337       8.1983      2.00000
    338       8.2200      2.00000
    339       8.2452      2.00000
    340       8.2662      2.00000
    341       8.3015      2.00000
    342       8.3067      2.00000
    343       8.3440      2.00000
    344       8.3658      2.00000
    345       8.3804      2.00000
    346       8.4059      2.00000
    347       8.4229      2.00000
    348       8.4370      2.00000
    349       8.4532      2.00000
    350       8.4754      2.00000
    351       8.4991      2.00000
    352       8.5266      2.00000
    353       8.5322      2.00000
    354       8.5339      2.00000
    355       8.5686      2.00000
    356       8.5938      2.00000
    357       8.6182      2.00000
    358       8.6215      2.00000
    359       8.6408      2.00000
    360       8.6742      2.00000
    361       8.7025      2.00000
    362       8.7062      2.00000
    363       8.7326      2.00000
    364       8.7630      2.00000
    365       8.7765      2.00000
    366       8.7804      2.00000
    367       8.8432      2.00000
    368       8.8669      2.00000
    369       8.8776      2.00000
    370       8.9066      2.00000
    371       8.9415      2.00000
    372       8.9747      2.00000
    373       9.0017      2.00000
    374       9.0188      2.00000
    375       9.0533      2.00000
    376       9.0796      2.00000
    377       9.0988      2.00000
    378       9.1304      1.99992
    379       9.1473      1.99947
    380       9.1873      1.98029
    381       9.1898      1.97628
    382       9.2294      1.74704
    383       9.2550      1.32301
    384       9.2861      0.64336
    385       9.2992      0.40455
    386       9.3387      0.05128
    387       9.3528      0.01883
    388       9.3645      0.00736
    389       9.3736      0.00333
    390       9.4198      0.00002
    391       9.4392      0.00000
    392       9.4700      0.00000
    393       9.4932      0.00000
    394       9.5368      0.00000
    395       9.5468      0.00000
    396       9.5756      0.00000
    397       9.5821      0.00000
    398       9.5930      0.00000
    399       9.6108      0.00000
    400       9.6241      0.00000
    401       9.6621      0.00000
    402       9.6705      0.00000
    403       9.6815      0.00000
    404       9.6921      0.00000
    405       9.7152      0.00000
    406       9.7484      0.00000
    407       9.7564      0.00000
    408       9.7950      0.00000
    409       9.7984      0.00000
    410       9.8170      0.00000
    411       9.8608      0.00000
    412       9.8688      0.00000
    413       9.8976      0.00000
    414       9.9054      0.00000
    415       9.9270      0.00000
    416       9.9406      0.00000
    417       9.9681      0.00000
    418       9.9702      0.00000
    419       9.9932      0.00000
    420      10.0183      0.00000
    421      10.0445      0.00000
    422      10.0556      0.00000
    423      10.0838      0.00000
    424      10.0941      0.00000
    425      10.1173      0.00000
    426      10.1353      0.00000
    427      10.1429      0.00000
    428      10.1467      0.00000
    429      10.1746      0.00000
    430      10.1974      0.00000
    431      10.2038      0.00000
    432      10.2262      0.00000
    433      10.2505      0.00000
    434      10.2699      0.00000
    435      10.2798      0.00000
    436      10.2896      0.00000
    437      10.3068      0.00000
    438      10.3490      0.00000
    439      10.3733      0.00000
    440      10.3909      0.00000
    441      10.4372      0.00000
    442      10.4471      0.00000
    443      10.4611      0.00000
    444      10.4818      0.00000
    445      10.5069      0.00000
    446      10.5286      0.00000
    447      10.5592      0.00000
    448      10.5653      0.00000
    449      10.5898      0.00000
    450      10.6208      0.00000
    451      10.6572      0.00000
    452      10.6746      0.00000
    453      10.6853      0.00000
    454      10.7120      0.00000
    455      10.7220      0.00000
    456      10.7355      0.00000
    457      10.7948      0.00000
    458      10.8045      0.00000
    459      10.8544      0.00000
    460      10.8750      0.00000
    461      10.8902      0.00000
    462      10.9177      0.00000
    463      10.9540      0.00000
    464      11.0074      0.00000

 k-point     5 :       0.0000    0.0000    0.5000
  band No.  band energies     occupation 
      1     -45.5254      2.00000
      2     -39.4660      2.00000
      3     -39.4281      2.00000
      4     -39.4104      2.00000
      5     -39.3985      2.00000
      6     -39.3943      2.00000
      7     -39.3872      2.00000
      8     -39.3809      2.00000
      9     -39.3640      2.00000
     10     -39.3607      2.00000
     11     -39.3458      2.00000
     12     -39.3435      2.00000
     13     -39.3362      2.00000
     14     -39.3275      2.00000
     15     -39.3205      2.00000
     16     -39.3112      2.00000
     17     -39.3008      2.00000
     18     -39.2995      2.00000
     19     -39.2916      2.00000
     20     -39.2910      2.00000
     21     -39.2841      2.00000
     22     -39.2735      2.00000
     23     -39.2638      2.00000
     24     -39.2621      2.00000
     25     -39.2513      2.00000
     26     -39.2452      2.00000
     27     -39.2387      2.00000
     28     -39.2382      2.00000
     29     -39.2312      2.00000
     30     -39.2276      2.00000
     31     -39.2250      2.00000
     32     -39.2182      2.00000
     33     -39.2120      2.00000
     34     -39.2058      2.00000
     35     -39.1970      2.00000
     36     -39.1899      2.00000
     37     -39.1771      2.00000
     38     -39.1752      2.00000
     39     -39.1625      2.00000
     40     -39.1563      2.00000
     41     -39.1512      2.00000
     42     -39.1489      2.00000
     43     -39.1422      2.00000
     44     -39.1354      2.00000
     45     -39.1258      2.00000
     46     -39.1241      2.00000
     47     -39.1144      2.00000
     48     -39.1115      2.00000
     49     -39.1054      2.00000
     50     -39.1023      2.00000
     51     -39.0963      2.00000
     52     -39.0947      2.00000
     53     -39.0830      2.00000
     54     -39.0744      2.00000
     55     -39.0653      2.00000
     56     -39.0629      2.00000
     57     -39.0336      2.00000
     58     -39.0271      2.00000
     59     -39.0203      2.00000
     60     -39.0173      2.00000
     61     -39.0127      2.00000
     62     -38.9460      2.00000
     63     -38.9169      2.00000
     64     -38.9087      2.00000
     65     -21.6173      2.00000
     66     -21.5908      2.00000
     67     -21.5621      2.00000
     68     -18.0361      2.00000
     69     -17.9988      2.00000
     70     -17.9922      2.00000
     71     -17.9721      2.00000
     72     -17.9602      2.00000
     73     -17.9475      2.00000
     74     -17.9416      2.00000
     75     -17.9195      2.00000
     76     -17.9083      2.00000
     77     -17.9060      2.00000
     78     -17.8956      2.00000
     79     -17.8886      2.00000
     80     -17.8866      2.00000
     81     -17.8595      2.00000
     82     -17.8493      2.00000
     83     -17.8419      2.00000
     84     -17.8394      2.00000
     85     -17.8265      2.00000
     86     -17.8248      2.00000
     87     -17.8232      2.00000
     88     -17.8134      2.00000
     89     -17.8090      2.00000
     90     -17.8029      2.00000
     91     -17.7944      2.00000
     92     -17.7865      2.00000
     93     -17.7846      2.00000
     94     -17.7788      2.00000
     95     -17.7637      2.00000
     96     -17.7555      2.00000
     97     -17.7521      2.00000
     98     -17.7488      2.00000
     99     -17.7407      2.00000
    100     -17.7383      2.00000
    101     -17.7317      2.00000
    102     -17.7255      2.00000
    103     -17.7201      2.00000
    104     -17.7099      2.00000
    105     -17.7006      2.00000
    106     -17.6976      2.00000
    107     -17.6915      2.00000
    108     -17.6802      2.00000
    109     -17.6708      2.00000
    110     -17.6569      2.00000
    111     -17.6441      2.00000
    112     -17.6409      2.00000
    113     -17.6363      2.00000
    114     -17.6325      2.00000
    115     -17.6280      2.00000
    116     -17.6093      2.00000
    117     -17.6005      2.00000
    118     -17.5889      2.00000
    119     -17.5729      2.00000
    120     -17.5669      2.00000
    121     -17.5533      2.00000
    122     -17.5459      2.00000
    123     -17.5434      2.00000
    124     -17.5283      2.00000
    125     -17.5182      2.00000
    126     -17.5135      2.00000
    127     -17.4893      2.00000
    128     -17.4861      2.00000
    129     -17.4804      2.00000
    130     -17.4704      2.00000
    131     -17.4660      2.00000
    132     -17.4535      2.00000
    133     -17.4411      2.00000
    134     -17.4316      2.00000
    135     -17.4306      2.00000
    136     -17.4166      2.00000
    137     -17.4155      2.00000
    138     -17.4092      2.00000
    139     -17.3979      2.00000
    140     -17.3944      2.00000
    141     -17.3867      2.00000
    142     -17.3858      2.00000
    143     -17.3794      2.00000
    144     -17.3717      2.00000
    145     -17.3629      2.00000
    146     -17.3575      2.00000
    147     -17.3512      2.00000
    148     -17.3436      2.00000
    149     -17.3371      2.00000
    150     -17.3340      2.00000
    151     -17.3244      2.00000
    152     -17.3227      2.00000
    153     -17.3128      2.00000
    154     -17.3067      2.00000
    155     -17.3022      2.00000
    156     -17.2922      2.00000
    157     -17.2903      2.00000
    158     -17.2719      2.00000
    159     -17.2677      2.00000
    160     -17.2621      2.00000
    161     -17.2595      2.00000
    162     -17.2531      2.00000
    163     -17.2489      2.00000
    164     -17.2436      2.00000
    165     -17.2336      2.00000
    166     -17.2274      2.00000
    167     -17.2187      2.00000
    168     -17.2087      2.00000
    169     -17.2055      2.00000
    170     -17.2013      2.00000
    171     -17.1971      2.00000
    172     -17.1859      2.00000
    173     -17.1791      2.00000
    174     -17.1746      2.00000
    175     -17.1721      2.00000
    176     -17.1602      2.00000
    177     -17.1540      2.00000
    178     -17.1516      2.00000
    179     -17.1473      2.00000
    180     -17.1408      2.00000
    181     -17.1338      2.00000
    182     -17.1305      2.00000
    183     -17.1209      2.00000
    184     -17.1155      2.00000
    185     -17.1138      2.00000
    186     -17.1085      2.00000
    187     -17.1020      2.00000
    188     -17.0956      2.00000
    189     -17.0915      2.00000
    190     -17.0889      2.00000
    191     -17.0831      2.00000
    192     -17.0763      2.00000
    193     -17.0676      2.00000
    194     -17.0629      2.00000
    195     -17.0571      2.00000
    196     -17.0502      2.00000
    197     -17.0423      2.00000
    198     -17.0410      2.00000
    199     -17.0336      2.00000
    200     -17.0273      2.00000
    201     -17.0255      2.00000
    202     -17.0190      2.00000
    203     -17.0147      2.00000
    204     -17.0109      2.00000
    205     -17.0064      2.00000
    206     -16.9993      2.00000
    207     -16.9865      2.00000
    208     -16.9827      2.00000
    209     -16.9816      2.00000
    210     -16.9776      2.00000
    211     -16.9716      2.00000
    212     -16.9647      2.00000
    213     -16.9619      2.00000
    214     -16.9557      2.00000
    215     -16.9525      2.00000
    216     -16.9459      2.00000
    217     -16.9402      2.00000
    218     -16.9362      2.00000
    219     -16.9323      2.00000
    220     -16.9258      2.00000
    221     -16.9248      2.00000
    222     -16.9219      2.00000
    223     -16.9130      2.00000
    224     -16.9069      2.00000
    225     -16.9012      2.00000
    226     -16.8987      2.00000
    227     -16.8959      2.00000
    228     -16.8904      2.00000
    229     -16.8857      2.00000
    230     -16.8751      2.00000
    231     -16.8714      2.00000
    232     -16.8650      2.00000
    233     -16.8616      2.00000
    234     -16.8474      2.00000
    235     -16.8467      2.00000
    236     -16.8432      2.00000
    237     -16.8368      2.00000
    238     -16.8309      2.00000
    239     -16.8262      2.00000
    240     -16.8184      2.00000
    241     -16.8132      2.00000
    242     -16.8079      2.00000
    243     -16.7934      2.00000
    244     -16.7838      2.00000
    245     -16.7714      2.00000
    246     -16.7689      2.00000
    247     -16.7614      2.00000
    248     -16.7495      2.00000
    249     -16.7425      2.00000
    250     -16.7358      2.00000
    251     -16.7153      2.00000
    252     -16.7126      2.00000
    253     -16.7032      2.00000
    254     -16.6561      2.00000
    255     -16.6462      2.00000
    256     -16.6358      2.00000
    257       4.2294      2.00000
    258       4.2450      2.00000
    259       5.3523      2.00000
    260       5.3615      2.00000
    261       5.3736      2.00000
    262       5.3922      2.00000
    263       5.6047      2.00000
    264       5.6187      2.00000
    265       5.6228      2.00000
    266       5.6250      2.00000
    267       6.1735      2.00000
    268       6.1914      2.00000
    269       6.2110      2.00000
    270       6.2292      2.00000
    271       6.2433      2.00000
    272       6.2643      2.00000
    273       6.2785      2.00000
    274       6.2852      2.00000
    275       6.3028      2.00000
    276       6.3051      2.00000
    277       6.3128      2.00000
    278       6.3182      2.00000
    279       6.3273      2.00000
    280       6.3611      2.00000
    281       6.3757      2.00000
    282       6.3863      2.00000
    283       6.6956      2.00000
    284       6.7130      2.00000
    285       6.7410      2.00000
    286       6.7701      2.00000
    287       6.7873      2.00000
    288       6.7922      2.00000
    289       6.9632      2.00000
    290       7.0078      2.00000
    291       7.0450      2.00000
    292       7.0766      2.00000
    293       7.1148      2.00000
    294       7.1369      2.00000
    295       7.1527      2.00000
    296       7.1608      2.00000
    297       7.1845      2.00000
    298       7.1942      2.00000
    299       7.2106      2.00000
    300       7.2289      2.00000
    301       7.2528      2.00000
    302       7.2619      2.00000
    303       7.2827      2.00000
    304       7.3029      2.00000
    305       7.3143      2.00000
    306       7.3217      2.00000
    307       7.3448      2.00000
    308       7.3739      2.00000
    309       7.4183      2.00000
    310       7.4381      2.00000
    311       7.4499      2.00000
    312       7.4836      2.00000
    313       7.4996      2.00000
    314       7.5292      2.00000
    315       7.5634      2.00000
    316       7.5933      2.00000
    317       7.6330      2.00000
    318       7.6783      2.00000
    319       7.6830      2.00000
    320       7.6987      2.00000
    321       7.7143      2.00000
    322       7.7821      2.00000
    323       7.7987      2.00000
    324       7.8198      2.00000
    325       7.8336      2.00000
    326       7.8510      2.00000
    327       7.8667      2.00000
    328       7.8732      2.00000
    329       7.8915      2.00000
    330       7.9233      2.00000
    331       7.9372      2.00000
    332       7.9438      2.00000
    333       7.9697      2.00000
    334       7.9834      2.00000
    335       8.0043      2.00000
    336       8.0200      2.00000
    337       8.0229      2.00000
    338       8.0487      2.00000
    339       8.0592      2.00000
    340       8.0802      2.00000
    341       8.1080      2.00000
    342       8.1313      2.00000
    343       8.1404      2.00000
    344       8.1585      2.00000
    345       8.1643      2.00000
    346       8.1787      2.00000
    347       8.1852      2.00000
    348       8.2087      2.00000
    349       8.2203      2.00000
    350       8.2450      2.00000
    351       8.2522      2.00000
    352       8.2540      2.00000
    353       8.2975      2.00000
    354       8.3138      2.00000
    355       8.3228      2.00000
    356       8.3471      2.00000
    357       8.3975      2.00000
    358       8.3989      2.00000
    359       8.4278      2.00000
    360       8.4655      2.00000
    361       8.5431      2.00000
    362       8.5623      2.00000
    363       8.5783      2.00000
    364       8.5956      2.00000
    365       8.6341      2.00000
    366       8.6673      2.00000
    367       8.6759      2.00000
    368       8.6902      2.00000
    369       8.7482      2.00000
    370       8.7578      2.00000
    371       8.7725      2.00000
    372       8.8061      2.00000
    373       8.8512      2.00000
    374       8.8797      2.00000
    375       8.9358      2.00000
    376       8.9621      2.00000
    377       8.9917      2.00000
    378       9.0355      2.00000
    379       9.0537      2.00000
    380       9.0787      2.00000
    381       9.1139      1.99999
    382       9.1740      1.99325
    383       9.2099      1.90964
    384       9.2421      1.56682
    385       9.2578      1.26452
    386       9.2881      0.60443
    387       9.3074      0.28722
    388       9.3277      0.10122
    389       9.3492      0.02469
    390       9.3939      0.00045
    391       9.4013      0.00020
    392       9.4285      0.00001
    393       9.4444      0.00000
    394       9.4901      0.00000
    395       9.4957      0.00000
    396       9.5191      0.00000
    397       9.5329      0.00000
    398       9.5444      0.00000
    399       9.6049      0.00000
    400       9.6140      0.00000
    401       9.6250      0.00000
    402       9.6539      0.00000
    403       9.6736      0.00000
    404       9.6840      0.00000
    405       9.7024      0.00000
    406       9.7269      0.00000
    407       9.7413      0.00000
    408       9.7901      0.00000
    409       9.8004      0.00000
    410       9.8109      0.00000
    411       9.8396      0.00000
    412       9.8781      0.00000
    413       9.8993      0.00000
    414       9.9050      0.00000
    415       9.9399      0.00000
    416       9.9527      0.00000
    417       9.9583      0.00000
    418       9.9885      0.00000
    419      10.0222      0.00000
    420      10.0365      0.00000
    421      10.0479      0.00000
    422      10.0498      0.00000
    423      10.0814      0.00000
    424      10.0865      0.00000
    425      10.1206      0.00000
    426      10.1562      0.00000
    427      10.1640      0.00000
    428      10.1994      0.00000
    429      10.2300      0.00000
    430      10.2405      0.00000
    431      10.2515      0.00000
    432      10.2753      0.00000
    433      10.2965      0.00000
    434      10.3186      0.00000
    435      10.3412      0.00000
    436      10.3626      0.00000
    437      10.3808      0.00000
    438      10.3954      0.00000
    439      10.4075      0.00000
    440      10.4290      0.00000
    441      10.4354      0.00000
    442      10.4425      0.00000
    443      10.5035      0.00000
    444      10.5148      0.00000
    445      10.5387      0.00000
    446      10.5594      0.00000
    447      10.5703      0.00000
    448      10.5974      0.00000
    449      10.6279      0.00000
    450      10.6378      0.00000
    451      10.6836      0.00000
    452      10.7054      0.00000
    453      10.7196      0.00000
    454      10.7431      0.00000
    455      10.7568      0.00000
    456      10.7684      0.00000
    457      10.8047      0.00000
    458      10.8180      0.00000
    459      10.8347      0.00000
    460      10.8559      0.00000
    461      10.8928      0.00000
    462      10.8989      0.00000
    463      10.9546      0.00000
    464      10.9807      0.00000

 k-point     6 :       0.5000   -0.0000    0.5000
  band No.  band energies     occupation 
      1     -45.5254      2.00000
      2     -39.4657      2.00000
      3     -39.4268      2.00000
      4     -39.4114      2.00000
      5     -39.3984      2.00000
      6     -39.3969      2.00000
      7     -39.3867      2.00000
      8     -39.3797      2.00000
      9     -39.3645      2.00000
     10     -39.3602      2.00000
     11     -39.3486      2.00000
     12     -39.3431      2.00000
     13     -39.3315      2.00000
     14     -39.3298      2.00000
     15     -39.3216      2.00000
     16     -39.3107      2.00000
     17     -39.3005      2.00000
     18     -39.2984      2.00000
     19     -39.2914      2.00000
     20     -39.2901      2.00000
     21     -39.2861      2.00000
     22     -39.2732      2.00000
     23     -39.2644      2.00000
     24     -39.2618      2.00000
     25     -39.2510      2.00000
     26     -39.2425      2.00000
     27     -39.2401      2.00000
     28     -39.2368      2.00000
     29     -39.2325      2.00000
     30     -39.2281      2.00000
     31     -39.2225      2.00000
     32     -39.2188      2.00000
     33     -39.2144      2.00000
     34     -39.2057      2.00000
     35     -39.1978      2.00000
     36     -39.1893      2.00000
     37     -39.1782      2.00000
     38     -39.1732      2.00000
     39     -39.1643      2.00000
     40     -39.1545      2.00000
     41     -39.1526      2.00000
     42     -39.1486      2.00000
     43     -39.1423      2.00000
     44     -39.1363      2.00000
     45     -39.1250      2.00000
     46     -39.1239      2.00000
     47     -39.1152      2.00000
     48     -39.1094      2.00000
     49     -39.1054      2.00000
     50     -39.1022      2.00000
     51     -39.0992      2.00000
     52     -39.0932      2.00000
     53     -39.0833      2.00000
     54     -39.0739      2.00000
     55     -39.0652      2.00000
     56     -39.0630      2.00000
     57     -39.0336      2.00000
     58     -39.0271      2.00000
     59     -39.0201      2.00000
     60     -39.0174      2.00000
     61     -39.0127      2.00000
     62     -38.9460      2.00000
     63     -38.9169      2.00000
     64     -38.9087      2.00000
     65     -21.6173      2.00000
     66     -21.5908      2.00000
     67     -21.5621      2.00000
     68     -18.0312      2.00000
     69     -17.9802      2.00000
     70     -17.9780      2.00000
     71     -17.9752      2.00000
     72     -17.9563      2.00000
     73     -17.9366      2.00000
     74     -17.9309      2.00000
     75     -17.9235      2.00000
     76     -17.9145      2.00000
     77     -17.9073      2.00000
     78     -17.8935      2.00000
     79     -17.8844      2.00000
     80     -17.8760      2.00000
     81     -17.8733      2.00000
     82     -17.8652      2.00000
     83     -17.8573      2.00000
     84     -17.8443      2.00000
     85     -17.8371      2.00000
     86     -17.8281      2.00000
     87     -17.8225      2.00000
     88     -17.8113      2.00000
     89     -17.8031      2.00000
     90     -17.7947      2.00000
     91     -17.7912      2.00000
     92     -17.7883      2.00000
     93     -17.7825      2.00000
     94     -17.7720      2.00000
     95     -17.7687      2.00000
     96     -17.7623      2.00000
     97     -17.7607      2.00000
     98     -17.7535      2.00000
     99     -17.7458      2.00000
    100     -17.7377      2.00000
    101     -17.7317      2.00000
    102     -17.7264      2.00000
    103     -17.7174      2.00000
    104     -17.7086      2.00000
    105     -17.7012      2.00000
    106     -17.6946      2.00000
    107     -17.6828      2.00000
    108     -17.6774      2.00000
    109     -17.6707      2.00000
    110     -17.6598      2.00000
    111     -17.6577      2.00000
    112     -17.6463      2.00000
    113     -17.6408      2.00000
    114     -17.6360      2.00000
    115     -17.6194      2.00000
    116     -17.6031      2.00000
    117     -17.5959      2.00000
    118     -17.5934      2.00000
    119     -17.5768      2.00000
    120     -17.5746      2.00000
    121     -17.5549      2.00000
    122     -17.5490      2.00000
    123     -17.5436      2.00000
    124     -17.5255      2.00000
    125     -17.5195      2.00000
    126     -17.5149      2.00000
    127     -17.4968      2.00000
    128     -17.4948      2.00000
    129     -17.4866      2.00000
    130     -17.4743      2.00000
    131     -17.4734      2.00000
    132     -17.4569      2.00000
    133     -17.4538      2.00000
    134     -17.4467      2.00000
    135     -17.4357      2.00000
    136     -17.4326      2.00000
    137     -17.4220      2.00000
    138     -17.4157      2.00000
    139     -17.4095      2.00000
    140     -17.3985      2.00000
    141     -17.3936      2.00000
    142     -17.3889      2.00000
    143     -17.3841      2.00000
    144     -17.3817      2.00000
    145     -17.3730      2.00000
    146     -17.3622      2.00000
    147     -17.3525      2.00000
    148     -17.3369      2.00000
    149     -17.3329      2.00000
    150     -17.3192      2.00000
    151     -17.3169      2.00000
    152     -17.3122      2.00000
    153     -17.3066      2.00000
    154     -17.3042      2.00000
    155     -17.2923      2.00000
    156     -17.2833      2.00000
    157     -17.2794      2.00000
    158     -17.2750      2.00000
    159     -17.2617      2.00000
    160     -17.2581      2.00000
    161     -17.2474      2.00000
    162     -17.2381      2.00000
    163     -17.2343      2.00000
    164     -17.2313      2.00000
    165     -17.2258      2.00000
    166     -17.2216      2.00000
    167     -17.2132      2.00000
    168     -17.2093      2.00000
    169     -17.1979      2.00000
    170     -17.1938      2.00000
    171     -17.1815      2.00000
    172     -17.1792      2.00000
    173     -17.1730      2.00000
    174     -17.1669      2.00000
    175     -17.1638      2.00000
    176     -17.1582      2.00000
    177     -17.1554      2.00000
    178     -17.1490      2.00000
    179     -17.1466      2.00000
    180     -17.1381      2.00000
    181     -17.1315      2.00000
    182     -17.1270      2.00000
    183     -17.1190      2.00000
    184     -17.1162      2.00000
    185     -17.1075      2.00000
    186     -17.1055      2.00000
    187     -17.0995      2.00000
    188     -17.0957      2.00000
    189     -17.0898      2.00000
    190     -17.0877      2.00000
    191     -17.0825      2.00000
    192     -17.0762      2.00000
    193     -17.0735      2.00000
    194     -17.0610      2.00000
    195     -17.0563      2.00000
    196     -17.0517      2.00000
    197     -17.0469      2.00000
    198     -17.0454      2.00000
    199     -17.0346      2.00000
    200     -17.0253      2.00000
    201     -17.0246      2.00000
    202     -17.0207      2.00000
    203     -17.0135      2.00000
    204     -17.0101      2.00000
    205     -17.0077      2.00000
    206     -16.9963      2.00000
    207     -16.9895      2.00000
    208     -16.9849      2.00000
    209     -16.9826      2.00000
    210     -16.9762      2.00000
    211     -16.9744      2.00000
    212     -16.9730      2.00000
    213     -16.9667      2.00000
    214     -16.9592      2.00000
    215     -16.9530      2.00000
    216     -16.9489      2.00000
    217     -16.9433      2.00000
    218     -16.9349      2.00000
    219     -16.9330      2.00000
    220     -16.9289      2.00000
    221     -16.9247      2.00000
    222     -16.9216      2.00000
    223     -16.9122      2.00000
    224     -16.9085      2.00000
    225     -16.9062      2.00000
    226     -16.8989      2.00000
    227     -16.8947      2.00000
    228     -16.8894      2.00000
    229     -16.8867      2.00000
    230     -16.8739      2.00000
    231     -16.8723      2.00000
    232     -16.8678      2.00000
    233     -16.8654      2.00000
    234     -16.8516      2.00000
    235     -16.8474      2.00000
    236     -16.8405      2.00000
    237     -16.8401      2.00000
    238     -16.8300      2.00000
    239     -16.8232      2.00000
    240     -16.8172      2.00000
    241     -16.8122      2.00000
    242     -16.8064      2.00000
    243     -16.8050      2.00000
    244     -16.7859      2.00000
    245     -16.7806      2.00000
    246     -16.7677      2.00000
    247     -16.7639      2.00000
    248     -16.7502      2.00000
    249     -16.7418      2.00000
    250     -16.7339      2.00000
    251     -16.7182      2.00000
    252     -16.7114      2.00000
    253     -16.7007      2.00000
    254     -16.6577      2.00000
    255     -16.6460      2.00000
    256     -16.6406      2.00000
    257       4.5336      2.00000
    258       4.5469      2.00000
    259       4.5586      2.00000
    260       4.5743      2.00000
    261       5.8110      2.00000
    262       5.8353      2.00000
    263       5.8441      2.00000
    264       5.8670      2.00000
    265       5.8813      2.00000
    266       5.8956      2.00000
    267       5.8991      2.00000
    268       5.9313      2.00000
    269       6.2513      2.00000
    270       6.2655      2.00000
    271       6.3053      2.00000
    272       6.3116      2.00000
    273       6.3257      2.00000
    274       6.3446      2.00000
    275       6.3531      2.00000
    276       6.3545      2.00000
    277       6.3752      2.00000
    278       6.3761      2.00000
    279       6.3946      2.00000
    280       6.4165      2.00000
    281       6.4785      2.00000
    282       6.4908      2.00000
    283       6.5103      2.00000
    284       6.5219      2.00000
    285       6.5453      2.00000
    286       6.5631      2.00000
    287       6.5722      2.00000
    288       6.5852      2.00000
    289       6.8254      2.00000
    290       6.9003      2.00000
    291       6.9126      2.00000
    292       6.9470      2.00000
    293       6.9686      2.00000
    294       6.9994      2.00000
    295       7.0370      2.00000
    296       7.0596      2.00000
    297       7.0802      2.00000
    298       7.0961      2.00000
    299       7.1146      2.00000
    300       7.1481      2.00000
    301       7.2097      2.00000
    302       7.2232      2.00000
    303       7.3562      2.00000
    304       7.3947      2.00000
    305       7.4169      2.00000
    306       7.4605      2.00000
    307       7.4764      2.00000
    308       7.4916      2.00000
    309       7.5551      2.00000
    310       7.5628      2.00000
    311       7.5823      2.00000
    312       7.6114      2.00000
    313       7.6206      2.00000
    314       7.6306      2.00000
    315       7.6492      2.00000
    316       7.6510      2.00000
    317       7.6714      2.00000
    318       7.6756      2.00000
    319       7.6973      2.00000
    320       7.7074      2.00000
    321       7.7406      2.00000
    322       7.7820      2.00000
    323       7.7968      2.00000
    324       7.8046      2.00000
    325       7.8211      2.00000
    326       7.8287      2.00000
    327       7.8478      2.00000
    328       7.8653      2.00000
    329       7.8847      2.00000
    330       7.9065      2.00000
    331       7.9168      2.00000
    332       7.9282      2.00000
    333       7.9456      2.00000
    334       7.9545      2.00000
    335       7.9691      2.00000
    336       7.9938      2.00000
    337       8.0072      2.00000
    338       8.0220      2.00000
    339       8.0380      2.00000
    340       8.0790      2.00000
    341       8.0979      2.00000
    342       8.1038      2.00000
    343       8.1396      2.00000
    344       8.1656      2.00000
    345       8.1734      2.00000
    346       8.1934      2.00000
    347       8.2271      2.00000
    348       8.2446      2.00000
    349       8.2593      2.00000
    350       8.2771      2.00000
    351       8.3030      2.00000
    352       8.3109      2.00000
    353       8.3183      2.00000
    354       8.3317      2.00000
    355       8.3431      2.00000
    356       8.3466      2.00000
    357       8.3711      2.00000
    358       8.4042      2.00000
    359       8.4402      2.00000
    360       8.4529      2.00000
    361       8.4660      2.00000
    362       8.5082      2.00000
    363       8.5426      2.00000
    364       8.5666      2.00000
    365       8.5828      2.00000
    366       8.6013      2.00000
    367       8.6260      2.00000
    368       8.6378      2.00000
    369       8.6752      2.00000
    370       8.6883      2.00000
    371       8.7106      2.00000
    372       8.7775      2.00000
    373       8.7916      2.00000
    374       8.8488      2.00000
    375       8.9019      2.00000
    376       8.9317      2.00000
    377       8.9937      2.00000
    378       9.0393      2.00000
    379       9.0666      2.00000
    380       9.1287      1.99993
    381       9.1508      1.99924
    382       9.1811      1.98785
    383       9.2193      1.84695
    384       9.2551      1.32203
    385       9.2814      0.74135
    386       9.2892      0.58229
    387       9.2996      0.39924
    388       9.3516      0.02058
    389       9.3770      0.00241
    390       9.3850      0.00112
    391       9.4247      0.00001
    392       9.4422      0.00000
    393       9.4575      0.00000
    394       9.4738      0.00000
    395       9.5062      0.00000
    396       9.5104      0.00000
    397       9.5260      0.00000
    398       9.5589      0.00000
    399       9.5831      0.00000
    400       9.6166      0.00000
    401       9.6277      0.00000
    402       9.6587      0.00000
    403       9.6754      0.00000
    404       9.6975      0.00000
    405       9.7164      0.00000
    406       9.7498      0.00000
    407       9.7711      0.00000
    408       9.8026      0.00000
    409       9.8139      0.00000
    410       9.8242      0.00000
    411       9.8377      0.00000
    412       9.8567      0.00000
    413       9.8975      0.00000
    414       9.9025      0.00000
    415       9.9313      0.00000
    416       9.9524      0.00000
    417       9.9737      0.00000
    418      10.0162      0.00000
    419      10.0334      0.00000
    420      10.0528      0.00000
    421      10.0609      0.00000
    422      10.0886      0.00000
    423      10.1081      0.00000
    424      10.1300      0.00000
    425      10.1547      0.00000
    426      10.1830      0.00000
    427      10.1904      0.00000
    428      10.2076      0.00000
    429      10.2402      0.00000
    430      10.2643      0.00000
    431      10.2978      0.00000
    432      10.3051      0.00000
    433      10.3210      0.00000
    434      10.3376      0.00000
    435      10.3509      0.00000
    436      10.3720      0.00000
    437      10.3821      0.00000
    438      10.3969      0.00000
    439      10.4230      0.00000
    440      10.4420      0.00000
    441      10.4479      0.00000
    442      10.5019      0.00000
    443      10.5188      0.00000
    444      10.5275      0.00000
    445      10.5349      0.00000
    446      10.5799      0.00000
    447      10.5851      0.00000
    448      10.6276      0.00000
    449      10.6376      0.00000
    450      10.6626      0.00000
    451      10.6860      0.00000
    452      10.7095      0.00000
    453      10.7225      0.00000
    454      10.7314      0.00000
    455      10.7442      0.00000
    456      10.7587      0.00000
    457      10.7971      0.00000
    458      10.8313      0.00000
    459      10.8514      0.00000
    460      10.8717      0.00000
    461      10.8911      0.00000
    462      10.9189      0.00000
    463      10.9481      0.00000
    464      10.9711      0.00000

 k-point     7 :      -0.0000    0.5000    0.5000
  band No.  band energies     occupation 
      1     -45.5254      2.00000
      2     -39.4652      2.00000
      3     -39.4265      2.00000
      4     -39.4086      2.00000
      5     -39.4007      2.00000
      6     -39.3952      2.00000
      7     -39.3889      2.00000
      8     -39.3773      2.00000
      9     -39.3691      2.00000
     10     -39.3618      2.00000
     11     -39.3460      2.00000
     12     -39.3398      2.00000
     13     -39.3360      2.00000
     14     -39.3300      2.00000
     15     -39.3222      2.00000
     16     -39.3099      2.00000
     17     -39.3009      2.00000
     18     -39.2980      2.00000
     19     -39.2933      2.00000
     20     -39.2903      2.00000
     21     -39.2853      2.00000
     22     -39.2743      2.00000
     23     -39.2660      2.00000
     24     -39.2587      2.00000
     25     -39.2464      2.00000
     26     -39.2436      2.00000
     27     -39.2410      2.00000
     28     -39.2386      2.00000
     29     -39.2320      2.00000
     30     -39.2304      2.00000
     31     -39.2216      2.00000
     32     -39.2189      2.00000
     33     -39.2118      2.00000
     34     -39.2045      2.00000
     35     -39.1964      2.00000
     36     -39.1870      2.00000
     37     -39.1770      2.00000
     38     -39.1752      2.00000
     39     -39.1635      2.00000
     40     -39.1563      2.00000
     41     -39.1530      2.00000
     42     -39.1499      2.00000
     43     -39.1433      2.00000
     44     -39.1358      2.00000
     45     -39.1257      2.00000
     46     -39.1241      2.00000
     47     -39.1144      2.00000
     48     -39.1112      2.00000
     49     -39.1056      2.00000
     50     -39.1021      2.00000
     51     -39.0963      2.00000
     52     -39.0944      2.00000
     53     -39.0832      2.00000
     54     -39.0743      2.00000
     55     -39.0655      2.00000
     56     -39.0631      2.00000
     57     -39.0332      2.00000
     58     -39.0270      2.00000
     59     -39.0202      2.00000
     60     -39.0172      2.00000
     61     -39.0129      2.00000
     62     -38.9459      2.00000
     63     -38.9169      2.00000
     64     -38.9087      2.00000
     65     -21.6173      2.00000
     66     -21.5908      2.00000
     67     -21.5621      2.00000
     68     -18.0259      2.00000
     69     -17.9749      2.00000
     70     -17.9652      2.00000
     71     -17.9617      2.00000
     72     -17.9455      2.00000
     73     -17.9330      2.00000
     74     -17.9302      2.00000
     75     -17.9157      2.00000
     76     -17.9121      2.00000
     77     -17.9023      2.00000
     78     -17.9002      2.00000
     79     -17.8923      2.00000
     80     -17.8761      2.00000
     81     -17.8663      2.00000
     82     -17.8584      2.00000
     83     -17.8526      2.00000
     84     -17.8458      2.00000
     85     -17.8386      2.00000
     86     -17.8265      2.00000
     87     -17.8214      2.00000
     88     -17.8149      2.00000
     89     -17.8066      2.00000
     90     -17.8000      2.00000
     91     -17.7909      2.00000
     92     -17.7858      2.00000
     93     -17.7802      2.00000
     94     -17.7700      2.00000
     95     -17.7684      2.00000
     96     -17.7636      2.00000
     97     -17.7550      2.00000
     98     -17.7546      2.00000
     99     -17.7443      2.00000
    100     -17.7416      2.00000
    101     -17.7317      2.00000
    102     -17.7283      2.00000
    103     -17.7273      2.00000
    104     -17.7194      2.00000
    105     -17.7168      2.00000
    106     -17.7143      2.00000
    107     -17.7077      2.00000
    108     -17.6966      2.00000
    109     -17.6867      2.00000
    110     -17.6802      2.00000
    111     -17.6773      2.00000
    112     -17.6663      2.00000
    113     -17.6630      2.00000
    114     -17.6544      2.00000
    115     -17.6426      2.00000
    116     -17.6322      2.00000
    117     -17.6252      2.00000
    118     -17.6137      2.00000
    119     -17.6035      2.00000
    120     -17.5533      2.00000
    121     -17.5354      2.00000
    122     -17.5306      2.00000
    123     -17.5121      2.00000
    124     -17.4996      2.00000
    125     -17.4887      2.00000
    126     -17.4843      2.00000
    127     -17.4755      2.00000
    128     -17.4696      2.00000
    129     -17.4669      2.00000
    130     -17.4528      2.00000
    131     -17.4464      2.00000
    132     -17.4401      2.00000
    133     -17.4328      2.00000
    134     -17.4297      2.00000
    135     -17.4280      2.00000
    136     -17.4198      2.00000
    137     -17.4135      2.00000
    138     -17.4080      2.00000
    139     -17.4004      2.00000
    140     -17.3986      2.00000
    141     -17.3963      2.00000
    142     -17.3866      2.00000
    143     -17.3797      2.00000
    144     -17.3711      2.00000
    145     -17.3644      2.00000
    146     -17.3581      2.00000
    147     -17.3538      2.00000
    148     -17.3426      2.00000
    149     -17.3396      2.00000
    150     -17.3365      2.00000
    151     -17.3257      2.00000
    152     -17.3133      2.00000
    153     -17.3059      2.00000
    154     -17.3050      2.00000
    155     -17.2941      2.00000
    156     -17.2881      2.00000
    157     -17.2761      2.00000
    158     -17.2711      2.00000
    159     -17.2592      2.00000
    160     -17.2569      2.00000
    161     -17.2544      2.00000
    162     -17.2496      2.00000
    163     -17.2442      2.00000
    164     -17.2412      2.00000
    165     -17.2370      2.00000
    166     -17.2258      2.00000
    167     -17.2220      2.00000
    168     -17.2098      2.00000
    169     -17.2023      2.00000
    170     -17.1993      2.00000
    171     -17.1915      2.00000
    172     -17.1866      2.00000
    173     -17.1853      2.00000
    174     -17.1784      2.00000
    175     -17.1681      2.00000
    176     -17.1616      2.00000
    177     -17.1562      2.00000
    178     -17.1499      2.00000
    179     -17.1445      2.00000
    180     -17.1371      2.00000
    181     -17.1318      2.00000
    182     -17.1241      2.00000
    183     -17.1213      2.00000
    184     -17.1198      2.00000
    185     -17.1138      2.00000
    186     -17.1063      2.00000
    187     -17.0987      2.00000
    188     -17.0927      2.00000
    189     -17.0879      2.00000
    190     -17.0828      2.00000
    191     -17.0773      2.00000
    192     -17.0741      2.00000
    193     -17.0599      2.00000
    194     -17.0578      2.00000
    195     -17.0538      2.00000
    196     -17.0526      2.00000
    197     -17.0474      2.00000
    198     -17.0399      2.00000
    199     -17.0375      2.00000
    200     -17.0326      2.00000
    201     -17.0287      2.00000
    202     -17.0206      2.00000
    203     -17.0134      2.00000
    204     -17.0076      2.00000
    205     -17.0028      2.00000
    206     -17.0020      2.00000
    207     -16.9981      2.00000
    208     -16.9914      2.00000
    209     -16.9836      2.00000
    210     -16.9803      2.00000
    211     -16.9743      2.00000
    212     -16.9689      2.00000
    213     -16.9629      2.00000
    214     -16.9593      2.00000
    215     -16.9558      2.00000
    216     -16.9494      2.00000
    217     -16.9410      2.00000
    218     -16.9374      2.00000
    219     -16.9307      2.00000
    220     -16.9282      2.00000
    221     -16.9234      2.00000
    222     -16.9183      2.00000
    223     -16.9147      2.00000
    224     -16.9106      2.00000
    225     -16.8989      2.00000
    226     -16.8975      2.00000
    227     -16.8933      2.00000
    228     -16.8900      2.00000
    229     -16.8888      2.00000
    230     -16.8821      2.00000
    231     -16.8701      2.00000
    232     -16.8653      2.00000
    233     -16.8635      2.00000
    234     -16.8514      2.00000
    235     -16.8462      2.00000
    236     -16.8407      2.00000
    237     -16.8368      2.00000
    238     -16.8287      2.00000
    239     -16.8210      2.00000
    240     -16.8179      2.00000
    241     -16.8150      2.00000
    242     -16.8083      2.00000
    243     -16.8037      2.00000
    244     -16.7802      2.00000
    245     -16.7774      2.00000
    246     -16.7684      2.00000
    247     -16.7612      2.00000
    248     -16.7551      2.00000
    249     -16.7514      2.00000
    250     -16.7298      2.00000
    251     -16.7151      2.00000
    252     -16.7089      2.00000
    253     -16.6981      2.00000
    254     -16.6686      2.00000
    255     -16.6457      2.00000
    256     -16.6369      2.00000
    257       4.6328      2.00000
    258       4.6336      2.00000
    259       4.6629      2.00000
    260       4.6811      2.00000
    261       5.5802      2.00000
    262       5.5957      2.00000
    263       5.6064      2.00000
    264       5.6135      2.00000
    265       5.6176      2.00000
    266       5.6321      2.00000
    267       5.6434      2.00000
    268       5.6680      2.00000
    269       6.2244      2.00000
    270       6.2281      2.00000
    271       6.2485      2.00000
    272       6.2634      2.00000
    273       6.4682      2.00000
    274       6.4729      2.00000
    275       6.5022      2.00000
    276       6.5101      2.00000
    277       6.5214      2.00000
    278       6.5367      2.00000
    279       6.5436      2.00000
    280       6.5756      2.00000
    281       6.5924      2.00000
    282       6.5967      2.00000
    283       6.6446      2.00000
    284       6.6744      2.00000
    285       6.8599      2.00000
    286       6.9174      2.00000
    287       6.9485      2.00000
    288       6.9740      2.00000
    289       7.0253      2.00000
    290       7.0334      2.00000
    291       7.0477      2.00000
    292       7.0672      2.00000
    293       7.0893      2.00000
    294       7.0960      2.00000
    295       7.1130      2.00000
    296       7.1207      2.00000
    297       7.1374      2.00000
    298       7.1466      2.00000
    299       7.1592      2.00000
    300       7.1738      2.00000
    301       7.1875      2.00000
    302       7.2032      2.00000
    303       7.2156      2.00000
    304       7.2286      2.00000
    305       7.2351      2.00000
    306       7.2573      2.00000
    307       7.2759      2.00000
    308       7.2823      2.00000
    309       7.2954      2.00000
    310       7.3050      2.00000
    311       7.3090      2.00000
    312       7.3207      2.00000
    313       7.3541      2.00000
    314       7.3785      2.00000
    315       7.3860      2.00000
    316       7.4059      2.00000
    317       7.4172      2.00000
    318       7.4307      2.00000
    319       7.4687      2.00000
    320       7.4836      2.00000
    321       7.6758      2.00000
    322       7.7482      2.00000
    323       7.7666      2.00000
    324       7.7872      2.00000
    325       7.8042      2.00000
    326       7.8198      2.00000
    327       7.8430      2.00000
    328       7.8586      2.00000
    329       7.8692      2.00000
    330       7.9048      2.00000
    331       7.9171      2.00000
    332       7.9399      2.00000
    333       7.9702      2.00000
    334       7.9884      2.00000
    335       8.0038      2.00000
    336       8.0145      2.00000
    337       8.0162      2.00000
    338       8.0397      2.00000
    339       8.0690      2.00000
    340       8.1010      2.00000
    341       8.1094      2.00000
    342       8.1245      2.00000
    343       8.1748      2.00000
    344       8.1878      2.00000
    345       8.2075      2.00000
    346       8.2195      2.00000
    347       8.2381      2.00000
    348       8.2536      2.00000
    349       8.2919      2.00000
    350       8.3080      2.00000
    351       8.3124      2.00000
    352       8.3494      2.00000
    353       8.3746      2.00000
    354       8.3925      2.00000
    355       8.4649      2.00000
    356       8.4866      2.00000
    357       8.5118      2.00000
    358       8.5394      2.00000
    359       8.5566      2.00000
    360       8.5896      2.00000
    361       8.6146      2.00000
    362       8.6387      2.00000
    363       8.6459      2.00000
    364       8.6734      2.00000
    365       8.6853      2.00000
    366       8.7146      2.00000
    367       8.7385      2.00000
    368       8.7543      2.00000
    369       8.8327      2.00000
    370       8.8443      2.00000
    371       8.8757      2.00000
    372       8.8860      2.00000
    373       8.9013      2.00000
    374       8.9821      2.00000
    375       9.0382      2.00000
    376       9.0544      2.00000
    377       9.0828      2.00000
    378       9.0885      2.00000
    379       9.1110      1.99999
    380       9.1488      1.99938
    381       9.1857      1.98265
    382       9.2097      1.91087
    383       9.2324      1.70929
    384       9.2493      1.43740
    385       9.2682      1.03571
    386       9.2839      0.68942
    387       9.3531      0.01841
    388       9.3562      0.01456
    389       9.3728      0.00356
    390       9.3918      0.00056
    391       9.4069      0.00011
    392       9.4236      0.00001
    393       9.4284      0.00001
    394       9.4638      0.00000
    395       9.4782      0.00000
    396       9.4858      0.00000
    397       9.5164      0.00000
    398       9.5347      0.00000
    399       9.5469      0.00000
    400       9.5659      0.00000
    401       9.5914      0.00000
    402       9.6015      0.00000
    403       9.6335      0.00000
    404       9.6637      0.00000
    405       9.6910      0.00000
    406       9.7208      0.00000
    407       9.7248      0.00000
    408       9.7474      0.00000
    409       9.7647      0.00000
    410       9.7883      0.00000
    411       9.8022      0.00000
    412       9.8205      0.00000
    413       9.8460      0.00000
    414       9.8716      0.00000
    415       9.8927      0.00000
    416       9.9019      0.00000
    417       9.9257      0.00000
    418       9.9440      0.00000
    419       9.9880      0.00000
    420      10.0186      0.00000
    421      10.0370      0.00000
    422      10.0624      0.00000
    423      10.1111      0.00000
    424      10.1402      0.00000
    425      10.1645      0.00000
    426      10.1870      0.00000
    427      10.1949      0.00000
    428      10.2258      0.00000
    429      10.2366      0.00000
    430      10.2532      0.00000
    431      10.2674      0.00000
    432      10.3014      0.00000
    433      10.3159      0.00000
    434      10.3269      0.00000
    435      10.3584      0.00000
    436      10.3841      0.00000
    437      10.3877      0.00000
    438      10.4255      0.00000
    439      10.4460      0.00000
    440      10.4698      0.00000
    441      10.4815      0.00000
    442      10.5103      0.00000
    443      10.5427      0.00000
    444      10.5599      0.00000
    445      10.5710      0.00000
    446      10.5970      0.00000
    447      10.6224      0.00000
    448      10.6255      0.00000
    449      10.6429      0.00000
    450      10.6460      0.00000
    451      10.6740      0.00000
    452      10.7087      0.00000
    453      10.7204      0.00000
    454      10.7336      0.00000
    455      10.7487      0.00000
    456      10.7621      0.00000
    457      10.7845      0.00000
    458      10.8204      0.00000
    459      10.8435      0.00000
    460      10.8681      0.00000
    461      10.8868      0.00000
    462      10.9184      0.00000
    463      10.9296      0.00000
    464      10.9792      0.00000

 k-point     8 :       0.5000    0.5000    0.5000
  band No.  band energies     occupation 
      1     -45.5254      2.00000
      2     -39.4649      2.00000
      3     -39.4256      2.00000
      4     -39.4098      2.00000
      5     -39.4001      2.00000
      6     -39.3956      2.00000
      7     -39.3887      2.00000
      8     -39.3769      2.00000
      9     -39.3711      2.00000
     10     -39.3606      2.00000
     11     -39.3486      2.00000
     12     -39.3391      2.00000
     13     -39.3362      2.00000
     14     -39.3285      2.00000
     15     -39.3254      2.00000
     16     -39.3067      2.00000
     17     -39.3003      2.00000
     18     -39.2981      2.00000
     19     -39.2937      2.00000
     20     -39.2903      2.00000
     21     -39.2839      2.00000
     22     -39.2744      2.00000
     23     -39.2677      2.00000
     24     -39.2581      2.00000
     25     -39.2453      2.00000
     26     -39.2431      2.00000
     27     -39.2410      2.00000
     28     -39.2374      2.00000
     29     -39.2311      2.00000
     30     -39.2290      2.00000
     31     -39.2242      2.00000
     32     -39.2190      2.00000
     33     -39.2144      2.00000
     34     -39.2042      2.00000
     35     -39.1968      2.00000
     36     -39.1864      2.00000
     37     -39.1785      2.00000
     38     -39.1735      2.00000
     39     -39.1649      2.00000
     40     -39.1548      2.00000
     41     -39.1540      2.00000
     42     -39.1494      2.00000
     43     -39.1435      2.00000
     44     -39.1371      2.00000
     45     -39.1247      2.00000
     46     -39.1239      2.00000
     47     -39.1150      2.00000
     48     -39.1096      2.00000
     49     -39.1056      2.00000
     50     -39.1020      2.00000
     51     -39.0982      2.00000
     52     -39.0934      2.00000
     53     -39.0837      2.00000
     54     -39.0739      2.00000
     55     -39.0656      2.00000
     56     -39.0628      2.00000
     57     -39.0333      2.00000
     58     -39.0271      2.00000
     59     -39.0200      2.00000
     60     -39.0174      2.00000
     61     -39.0129      2.00000
     62     -38.9459      2.00000
     63     -38.9169      2.00000
     64     -38.9087      2.00000
     65     -21.6173      2.00000
     66     -21.5908      2.00000
     67     -21.5621      2.00000
     68     -18.0233      2.00000
     69     -17.9691      2.00000
     70     -17.9645      2.00000
     71     -17.9555      2.00000
     72     -17.9403      2.00000
     73     -17.9293      2.00000
     74     -17.9191      2.00000
     75     -17.9148      2.00000
     76     -17.9065      2.00000
     77     -17.9013      2.00000
     78     -17.8965      2.00000
     79     -17.8824      2.00000
     80     -17.8784      2.00000
     81     -17.8703      2.00000
     82     -17.8588      2.00000
     83     -17.8529      2.00000
     84     -17.8441      2.00000
     85     -17.8364      2.00000
     86     -17.8238      2.00000
     87     -17.8209      2.00000
     88     -17.8182      2.00000
     89     -17.8149      2.00000
     90     -17.8047      2.00000
     91     -17.7974      2.00000
     92     -17.7923      2.00000
     93     -17.7902      2.00000
     94     -17.7786      2.00000
     95     -17.7718      2.00000
     96     -17.7654      2.00000
     97     -17.7621      2.00000
     98     -17.7531      2.00000
     99     -17.7523      2.00000
    100     -17.7409      2.00000
    101     -17.7301      2.00000
    102     -17.7255      2.00000
    103     -17.7232      2.00000
    104     -17.7179      2.00000
    105     -17.7110      2.00000
    106     -17.7027      2.00000
    107     -17.6966      2.00000
    108     -17.6828      2.00000
    109     -17.6748      2.00000
    110     -17.6720      2.00000
    111     -17.6616      2.00000
    112     -17.6567      2.00000
    113     -17.6552      2.00000
    114     -17.6368      2.00000
    115     -17.6319      2.00000
    116     -17.6265      2.00000
    117     -17.6166      2.00000
    118     -17.6117      2.00000
    119     -17.6067      2.00000
    120     -17.5965      2.00000
    121     -17.5821      2.00000
    122     -17.5768      2.00000
    123     -17.5657      2.00000
    124     -17.5404      2.00000
    125     -17.5270      2.00000
    126     -17.5153      2.00000
    127     -17.5081      2.00000
    128     -17.4914      2.00000
    129     -17.4825      2.00000
    130     -17.4683      2.00000
    131     -17.4654      2.00000
    132     -17.4540      2.00000
    133     -17.4399      2.00000
    134     -17.4327      2.00000
    135     -17.4281      2.00000
    136     -17.4222      2.00000
    137     -17.4106      2.00000
    138     -17.4078      2.00000
    139     -17.4028      2.00000
    140     -17.3873      2.00000
    141     -17.3857      2.00000
    142     -17.3794      2.00000
    143     -17.3686      2.00000
    144     -17.3535      2.00000
    145     -17.3392      2.00000
    146     -17.3378      2.00000
    147     -17.3318      2.00000
    148     -17.3270      2.00000
    149     -17.3230      2.00000
    150     -17.3108      2.00000
    151     -17.3065      2.00000
    152     -17.2997      2.00000
    153     -17.2915      2.00000
    154     -17.2878      2.00000
    155     -17.2804      2.00000
    156     -17.2747      2.00000
    157     -17.2629      2.00000
    158     -17.2607      2.00000
    159     -17.2564      2.00000
    160     -17.2522      2.00000
    161     -17.2431      2.00000
    162     -17.2368      2.00000
    163     -17.2354      2.00000
    164     -17.2311      2.00000
    165     -17.2253      2.00000
    166     -17.2186      2.00000
    167     -17.2095      2.00000
    168     -17.2047      2.00000
    169     -17.2007      2.00000
    170     -17.1925      2.00000
    171     -17.1883      2.00000
    172     -17.1809      2.00000
    173     -17.1731      2.00000
    174     -17.1698      2.00000
    175     -17.1643      2.00000
    176     -17.1613      2.00000
    177     -17.1558      2.00000
    178     -17.1538      2.00000
    179     -17.1421      2.00000
    180     -17.1399      2.00000
    181     -17.1363      2.00000
    182     -17.1322      2.00000
    183     -17.1271      2.00000
    184     -17.1200      2.00000
    185     -17.1168      2.00000
    186     -17.1077      2.00000
    187     -17.1046      2.00000
    188     -17.0985      2.00000
    189     -17.0925      2.00000
    190     -17.0894      2.00000
    191     -17.0812      2.00000
    192     -17.0720      2.00000
    193     -17.0700      2.00000
    194     -17.0680      2.00000
    195     -17.0622      2.00000
    196     -17.0560      2.00000
    197     -17.0521      2.00000
    198     -17.0441      2.00000
    199     -17.0395      2.00000
    200     -17.0369      2.00000
    201     -17.0241      2.00000
    202     -17.0219      2.00000
    203     -17.0123      2.00000
    204     -17.0058      2.00000
    205     -17.0003      2.00000
    206     -16.9977      2.00000
    207     -16.9942      2.00000
    208     -16.9917      2.00000
    209     -16.9851      2.00000
    210     -16.9789      2.00000
    211     -16.9748      2.00000
    212     -16.9723      2.00000
    213     -16.9640      2.00000
    214     -16.9568      2.00000
    215     -16.9540      2.00000
    216     -16.9508      2.00000
    217     -16.9420      2.00000
    218     -16.9377      2.00000
    219     -16.9359      2.00000
    220     -16.9318      2.00000
    221     -16.9262      2.00000
    222     -16.9211      2.00000
    223     -16.9184      2.00000
    224     -16.9107      2.00000
    225     -16.9085      2.00000
    226     -16.9034      2.00000
    227     -16.8978      2.00000
    228     -16.8912      2.00000
    229     -16.8884      2.00000
    230     -16.8838      2.00000
    231     -16.8687      2.00000
    232     -16.8623      2.00000
    233     -16.8558      2.00000
    234     -16.8539      2.00000
    235     -16.8497      2.00000
    236     -16.8416      2.00000
    237     -16.8352      2.00000
    238     -16.8315      2.00000
    239     -16.8273      2.00000
    240     -16.8182      2.00000
    241     -16.8096      2.00000
    242     -16.8078      2.00000
    243     -16.8022      2.00000
    244     -16.7857      2.00000
    245     -16.7790      2.00000
    246     -16.7667      2.00000
    247     -16.7614      2.00000
    248     -16.7577      2.00000
    249     -16.7540      2.00000
    250     -16.7294      2.00000
    251     -16.7155      2.00000
    252     -16.7094      2.00000
    253     -16.6975      2.00000
    254     -16.6658      2.00000
    255     -16.6462      2.00000
    256     -16.6413      2.00000
    257       4.8938      2.00000
    258       4.9037      2.00000
    259       4.9159      2.00000
    260       4.9439      2.00000
    261       4.9453      2.00000
    262       4.9638      2.00000
    263       4.9689      2.00000
    264       4.9749      2.00000
    265       6.1985      2.00000
    266       6.2050      2.00000
    267       6.2166      2.00000
    268       6.2260      2.00000
    269       6.2370      2.00000
    270       6.2560      2.00000
    271       6.2696      2.00000
    272       6.2752      2.00000
    273       6.4718      2.00000
    274       6.4887      2.00000
    275       6.5110      2.00000
    276       6.5148      2.00000
    277       6.5203      2.00000
    278       6.5463      2.00000
    279       6.5572      2.00000
    280       6.5726      2.00000
    281       6.6746      2.00000
    282       6.7250      2.00000
    283       6.7291      2.00000
    284       6.7662      2.00000
    285       6.7834      2.00000
    286       6.7998      2.00000
    287       6.8144      2.00000
    288       6.8429      2.00000
    289       6.8473      2.00000
    290       6.8574      2.00000
    291       6.8681      2.00000
    292       6.8979      2.00000
    293       6.9041      2.00000
    294       6.9140      2.00000
    295       6.9269      2.00000
    296       6.9725      2.00000
    297       7.0791      2.00000
    298       7.1051      2.00000
    299       7.1098      2.00000
    300       7.1391      2.00000
    301       7.1490      2.00000
    302       7.1577      2.00000
    303       7.2039      2.00000
    304       7.2096      2.00000
    305       7.2422      2.00000
    306       7.2545      2.00000
    307       7.2633      2.00000
    308       7.2994      2.00000
    309       7.3170      2.00000
    310       7.3480      2.00000
    311       7.3888      2.00000
    312       7.4187      2.00000
    313       7.4548      2.00000
    314       7.4691      2.00000
    315       7.5113      2.00000
    316       7.5198      2.00000
    317       7.5510      2.00000
    318       7.5692      2.00000
    319       7.5900      2.00000
    320       7.6073      2.00000
    321       7.6438      2.00000
    322       7.6601      2.00000
    323       7.6776      2.00000
    324       7.7120      2.00000
    325       7.7166      2.00000
    326       7.7442      2.00000
    327       7.7627      2.00000
    328       7.7760      2.00000
    329       7.8064      2.00000
    330       7.8203      2.00000
    331       7.8358      2.00000
    332       7.8850      2.00000
    333       7.8944      2.00000
    334       7.9025      2.00000
    335       7.9345      2.00000
    336       7.9561      2.00000
    337       7.9789      2.00000
    338       7.9840      2.00000
    339       8.0053      2.00000
    340       8.0309      2.00000
    341       8.0431      2.00000
    342       8.0660      2.00000
    343       8.1145      2.00000
    344       8.1556      2.00000
    345       8.2252      2.00000
    346       8.2719      2.00000
    347       8.3075      2.00000
    348       8.3291      2.00000
    349       8.3457      2.00000
    350       8.3787      2.00000
    351       8.3955      2.00000
    352       8.4388      2.00000
    353       8.4627      2.00000
    354       8.4749      2.00000
    355       8.5243      2.00000
    356       8.5526      2.00000
    357       8.5672      2.00000
    358       8.5839      2.00000
    359       8.6077      2.00000
    360       8.6345      2.00000
    361       8.6379      2.00000
    362       8.6589      2.00000
    363       8.6622      2.00000
    364       8.6961      2.00000
    365       8.7410      2.00000
    366       8.7459      2.00000
    367       8.7559      2.00000
    368       8.7898      2.00000
    369       8.8058      2.00000
    370       8.8431      2.00000
    371       8.8672      2.00000
    372       8.8925      2.00000
    373       8.9070      2.00000
    374       8.9122      2.00000
    375       8.9301      2.00000
    376       8.9956      2.00000
    377       9.0634      2.00000
    378       9.1022      2.00000
    379       9.1161      1.99999
    380       9.1523      1.99911
    381       9.1744      1.99301
    382       9.1884      1.97859
    383       9.2246      1.79857
    384       9.2317      1.71852
    385       9.2537      1.34978
    386       9.2687      1.02420
    387       9.2879      0.60835
    388       9.3254      0.11558
    389       9.3548      0.01623
    390       9.3860      0.00101
    391       9.4158      0.00004
    392       9.4386      0.00000
    393       9.4573      0.00000
    394       9.4758      0.00000
    395       9.5073      0.00000
    396       9.5375      0.00000
    397       9.5633      0.00000
    398       9.5652      0.00000
    399       9.6080      0.00000
    400       9.6397      0.00000
    401       9.6502      0.00000
    402       9.6612      0.00000
    403       9.6804      0.00000
    404       9.7184      0.00000
    405       9.7345      0.00000
    406       9.7361      0.00000
    407       9.7723      0.00000
    408       9.7906      0.00000
    409       9.8102      0.00000
    410       9.8451      0.00000
    411       9.8609      0.00000
    412       9.8802      0.00000
    413       9.8909      0.00000
    414       9.9127      0.00000
    415       9.9405      0.00000
    416       9.9635      0.00000
    417       9.9776      0.00000
    418       9.9897      0.00000
    419      10.0315      0.00000
    420      10.0399      0.00000
    421      10.0647      0.00000
    422      10.0710      0.00000
    423      10.0908      0.00000
    424      10.1166      0.00000
    425      10.1297      0.00000
    426      10.1539      0.00000
    427      10.1667      0.00000
    428      10.2108      0.00000
    429      10.2184      0.00000
    430      10.2412      0.00000
    431      10.2659      0.00000
    432      10.2809      0.00000
    433      10.2922      0.00000
    434      10.3094      0.00000
    435      10.3313      0.00000
    436      10.3642      0.00000
    437      10.3808      0.00000
    438      10.3913      0.00000
    439      10.4024      0.00000
    440      10.4375      0.00000
    441      10.4567      0.00000
    442      10.4697      0.00000
    443      10.5122      0.00000
    444      10.5237      0.00000
    445      10.5493      0.00000
    446      10.5625      0.00000
    447      10.5850      0.00000
    448      10.6008      0.00000
    449      10.6260      0.00000
    450      10.6380      0.00000
    451      10.6414      0.00000
    452      10.6637      0.00000
    453      10.7002      0.00000
    454      10.7087      0.00000
    455      10.7671      0.00000
    456      10.7731      0.00000
    457      10.7777      0.00000
    458      10.8004      0.00000
    459      10.8062      0.00000
    460      10.8227      0.00000
    461      10.8549      0.00000
    462      10.8919      0.00000
    463      10.9305      0.00000
    464      10.9835      0.00000


--------------------------------------------------------------------------------------------------------


 soft charge-density along one line, spin component           1
         0         1         2         3         4         5         6         7         8         9
 total charge-density along one line
 
 pseudopotential strength for first ion, spin component:           1
 13.047 -25.443   0.001   0.002   0.000  -0.005  -0.012  -0.000
-25.443  13.263   0.006   0.015   0.001  -0.001  -0.003  -0.000
  0.001   0.006  -6.298   0.000  -0.000   4.849  -0.002  -0.001
  0.002   0.015   0.000  -6.307  -0.001  -0.002   4.848  -0.002
  0.000   0.001  -0.000  -0.001  -6.295  -0.001  -0.002   4.843
 -0.005  -0.001   4.849  -0.002  -0.001   8.554   0.002   0.001
 -0.012  -0.003  -0.002   4.848  -0.002   0.002   8.555   0.001
 -0.000  -0.000  -0.001  -0.002   4.843   0.001   0.001   8.558
  0.000   0.001   0.001   0.000   0.003  -0.001  -0.000  -0.003
  0.000   0.001   0.005   0.003   0.000  -0.006  -0.003  -0.000
 -0.005   0.001  -0.001   0.007  -0.001   0.001  -0.008   0.001
 -0.000   0.002   0.000  -0.001   0.006  -0.000   0.001  -0.006
  0.002   0.002  -0.001   0.000  -0.001   0.002  -0.000   0.000
  0.000   0.001   0.002   0.000   0.004  -0.002  -0.000  -0.004
  0.001   0.002   0.007   0.004   0.000  -0.008  -0.004  -0.000
 -0.007   0.001  -0.001   0.009  -0.001   0.002  -0.010   0.001
  0.000   0.002   0.000  -0.001   0.008  -0.000   0.001  -0.008
  0.003   0.002  -0.002   0.000  -0.001   0.002  -0.000   0.000
 total augmentation occupancy for first ion, spin component:           1
  1.998  -0.027   0.000   0.001   0.000  -0.000   0.000   0.000   0.005   0.011   0.020   0.010   0.006  -0.004  -0.009  -0.015
 -0.027   1.552  -0.001   0.003   0.002  -0.008  -0.020  -0.003  -0.000   0.049   0.303   0.074   0.024   0.013  -0.024  -0.156
  0.000  -0.001   2.003  -0.000  -0.000  -0.026   0.001   0.001  -0.020   0.017   0.006  -0.010   0.011   0.017  -0.009  -0.003
  0.001   0.003  -0.000   2.000  -0.001   0.001  -0.020   0.001  -0.008  -0.013   0.007   0.022  -0.010   0.007   0.010   0.001
  0.000   0.002  -0.000  -0.001   2.004   0.001   0.001  -0.028   0.000  -0.007   0.010  -0.007   0.012   0.009   0.006  -0.010
 -0.000  -0.008  -0.026   0.001   0.001   0.036   0.000  -0.001  -0.009  -0.048   0.001   0.001  -0.027   0.002   0.026  -0.002
  0.000  -0.020   0.001  -0.020   0.001   0.000   0.032  -0.001  -0.002  -0.012  -0.065   0.001   0.007   0.000   0.006   0.034
  0.000  -0.003   0.001   0.001  -0.028  -0.001  -0.001   0.039  -0.066  -0.004   0.016  -0.028   0.006   0.030   0.002  -0.005
  0.005  -0.000  -0.020  -0.008   0.000  -0.009  -0.002  -0.066   3.704   0.149   0.084   0.054   0.028  -1.889  -0.076  -0.047
  0.011   0.049   0.017  -0.013  -0.007  -0.048  -0.012  -0.004   0.149   3.768   0.009   0.099  -0.164  -0.076  -1.955   0.004
  0.020   0.303   0.006   0.007   0.010   0.001  -0.065   0.016   0.084   0.009   4.589   0.009  -0.191  -0.047   0.004  -2.374
  0.010   0.074  -0.010   0.022  -0.007   0.001   0.001  -0.028   0.054   0.099   0.009   3.655   0.088  -0.028  -0.041   0.004
  0.006   0.024   0.011  -0.010   0.012  -0.027   0.007   0.006   0.028  -0.164  -0.191   0.088   3.568  -0.005   0.093   0.108
 -0.004   0.013   0.017   0.007   0.009   0.002   0.000   0.030  -1.889  -0.076  -0.047  -0.028  -0.005   0.976   0.040   0.026
 -0.009  -0.024  -0.009   0.010   0.006   0.026   0.006   0.002  -0.076  -1.955   0.004  -0.041   0.093   0.040   1.027  -0.004
 -0.015  -0.156  -0.003   0.001  -0.010  -0.002   0.034  -0.005  -0.047   0.004  -2.374   0.004   0.108   0.026  -0.004   1.243
 -0.008  -0.037   0.007  -0.016   0.006  -0.001   0.001   0.016  -0.029  -0.041   0.005  -1.891  -0.054   0.016   0.017  -0.005
 -0.005  -0.017  -0.001   0.006  -0.009   0.010  -0.004  -0.003  -0.005   0.093   0.109  -0.054  -1.813  -0.002  -0.052  -0.060


------------------------ aborting loop because EDIFF is reached ----------------------------------------





 total charge

# of ion       s       p       d       tot
------------------------------------------
    1        2.244   5.953   1.728   9.925
    2        2.231   5.951   1.659   9.842
    3        2.227   5.955   1.638   9.821
    4        2.245   5.951   1.775   9.972
    5        2.244   5.960   1.729   9.932
    6        2.230   5.953   1.654   9.836
    7        2.251   5.956   1.805  10.012
    8        2.257   5.959   1.784   9.999
    9        2.242   5.955   1.725   9.921
   10        2.236   5.953   1.679   9.868
   11        2.247   5.958   1.714   9.919
   12        2.242   5.954   1.736   9.932
   13        2.243   5.953   1.723   9.919
   14        2.232   5.954   1.661   9.847
   15        2.236   5.952   1.685   9.872
   16        2.252   5.957   1.743   9.952
   17        2.243   5.957   1.714   9.914
   18        2.232   5.953   1.699   9.883
   19        2.239   5.959   1.682   9.880
   20        2.234   5.950   1.710   9.894
   21        2.235   5.949   1.716   9.900
   22        2.250   5.953   1.799  10.002
   23        2.233   5.957   1.638   9.828
   24        2.243   5.951   1.756   9.950
   25        2.236   5.954   1.700   9.890
   26        2.258   5.959   1.814  10.030
   27        2.236   5.952   1.667   9.855
   28        2.246   5.961   1.719   9.927
   29        2.261   5.956   1.832  10.049
   30        2.252   5.955   1.784   9.991
   31        2.236   5.957   1.698   9.891
   32        2.247   5.954   1.760   9.961
   33        2.237   5.956   1.704   9.897
   34        2.244   5.958   1.700   9.902
   35        2.234   5.954   1.680   9.868
   36        2.234   5.953   1.666   9.853
   37        2.246   5.954   1.724   9.924
   38        2.248   5.958   1.736   9.941
   39        2.237   5.957   1.673   9.867
   40        2.241   5.955   1.728   9.925
   41        2.241   5.956   1.716   9.913
   42        2.235   5.957   1.653   9.846
   43        2.238   5.954   1.690   9.882
   44        2.238   5.954   1.728   9.920
   45        2.250   5.958   1.761   9.968
   46        2.252   5.956   1.770   9.977
   47        2.235   5.953   1.682   9.870
   48        2.250   5.960   1.774   9.985
   49        2.243   5.957   1.730   9.930
   50        2.247   5.953   1.753   9.952
   51        2.253   5.958   1.757   9.968
   52        2.236   5.955   1.668   9.860
   53        2.240   5.960   1.657   9.857
   54        2.255   5.957   1.777   9.988
   55        2.233   5.952   1.653   9.838
   56        2.239   5.953   1.676   9.868
   57        2.247   5.958   1.722   9.926
   58        2.238   5.963   1.683   9.884
   59        2.239   5.954   1.731   9.923
   60        2.245   5.954   1.738   9.936
   61        2.242   5.958   1.713   9.914
   62        2.233   5.951   1.680   9.864
   63        2.246   5.954   1.753   9.953
   64        2.212   5.968   2.402  10.582
--------------------------------------------------
tot        143.442 381.146 110.605 635.193
 
    CHARGE:  cpu time      0.4494: real time      0.4495
    FORLOC:  cpu time      0.0177: real time      0.0177
    FORNL :  cpu time     12.6867: real time     12.6873
    STRESS:  cpu time     15.6678: real time     15.6695
    FORCOR:  cpu time      0.0998: real time      0.0998
    FORHAR:  cpu time      0.0356: real time      0.0356
    MIXING:  cpu time      0.0058: real time      0.0058
    OFIELD:  cpu time      0.0000: real time      0.0000

 ---------------------------------------------------------------------------------------------

         DFTD3 V3.0 Rev 1        
 DF pbe       
 parameters
 k1-k3        =   16.0000    1.3333   -4.0000
 Edisp (eV)  -35.17722

 E6    (eV) :   -17.1199
 E8    (eV) :   -18.0573
 % E8        : 51.33
    FORVDW:  cpu time      0.2690: real time      0.2690

  FORCE on cell =-STRESS in cart. coord.  units (eV):
  Direction    XX          YY          ZZ          XY          YZ          ZX
  --------------------------------------------------------------------------------------
  Alpha Z  3794.98599  3794.98599  3794.98599
  Ewald  -22767.63376-22615.87397-22168.10502    30.94498   -52.69471  -125.85699
  Hartree  4551.56084  4618.30509  4828.49169     5.05153   -38.89520   -71.44532
  E(xc)   -3277.60906 -3277.16264 -3276.31423     0.14945    -0.07031    -0.17399
  Local    3702.51982  3483.29362  2854.03450   -35.69821    93.27571   196.96414
  n-local -1056.65465 -1074.47213 -1139.79132    -6.47628     1.76239     2.87529
  augment   111.51413   114.72599   120.95490     1.10389    -0.51520    -0.80066
  Kinetic 14984.94524 15004.14262 15035.47230     7.89912    -3.71840    -3.98650
  Fock        0.00000     0.00000     0.00000     0.00000     0.00000     0.00000
  vdW       -36.62325   -36.69157   -36.73586    -0.03089     0.00560     0.00180
  -------------------------------------------------------------------------------------
  Total       7.00530    11.25301    12.99296     2.94359    -0.85013    -2.42224
  in kB       7.81206    12.54896    14.48929     3.28259    -0.94804    -2.70120
  external pressure =       11.62 kB  Pullay stress =        0.00 kB


 VOLUME and BASIS-vectors are now :
 -----------------------------------------------------------------------------
  energy-cutoff  :      480.00
  volume of cell :     1436.72
      direct lattice vectors                 reciprocal lattice vectors
    12.743897884  0.000000039  0.000000000     0.078468928  0.000000014  0.000000000
    -0.000001933 11.031495272  0.000000000    -0.000000000  0.090649543  0.000000000
     0.000000000  0.000000000 10.219619642     0.000000000  0.000000000  0.097851000

  length of vectors
    12.743897884 11.031495272 10.219619642     0.078468928  0.090649543  0.097851000


 FORCES acting on ions
    electron-ion (+dipol)            ewald-force                    non-local-force                 convergence-correction
 -----------------------------------------------------------------------------------------------
   -.221E+02 -.327E+02 -.734E+02   0.220E+02 0.330E+02 0.741E+02   0.168E+00 0.127E+00 0.698E+00   -.557E-02 0.235E-02 -.744E-02
   -.563E+02 0.606E+02 -.105E+02   0.569E+02 -.608E+02 0.112E+02   0.618E-01 -.544E+00 -.351E+00   -.104E-01 -.689E-03 0.534E-02
   0.513E+02 0.446E+02 0.925E+02   -.517E+02 -.449E+02 -.935E+02   -.428E+00 -.463E+00 -.389E+00   -.553E-03 -.108E-02 -.233E-02
   0.959E+02 -.128E+02 -.832E+02   -.961E+02 0.139E+02 0.838E+02   -.920E+00 -.843E+00 0.246E+00   0.258E-02 0.142E-02 0.281E-02
   0.781E+02 -.646E+02 0.206E+02   -.779E+02 0.658E+02 -.208E+02   -.200E+00 0.249E+00 -.571E+00   -.245E-02 0.334E-03 -.100E-01
   0.388E+02 0.340E+02 0.565E+02   -.383E+02 -.342E+02 -.574E+02   -.222E+00 0.105E+00 -.114E+00   -.461E-02 -.237E-02 0.990E-02
   0.163E+02 0.829E+02 -.171E+02   -.162E+02 -.842E+02 0.179E+02   -.783E-01 -.164E+00 -.459E-01   0.788E-02 -.531E-03 -.574E-02
   -.199E+02 -.344E+02 -.309E+02   0.199E+02 0.348E+02 0.311E+02   0.151E+00 0.923E-01 0.738E-01   0.321E-02 0.239E-02 -.947E-02
   0.428E+02 0.799E+02 -.360E+01   -.422E+02 -.804E+02 0.368E+01   -.393E+00 -.516E+00 -.278E-01   0.810E-02 -.165E-03 0.933E-02
   -.496E+02 0.401E+02 -.196E+02   0.501E+02 -.402E+02 0.192E+02   0.363E+00 -.493E-01 0.272E+00   -.149E-02 -.346E-02 -.692E-02
   0.398E+02 -.112E+03 -.792E+02   -.402E+02 0.111E+03 0.797E+02   -.314E+00 0.125E+01 0.947E+00   -.443E-02 -.471E-03 0.712E-02
   -.541E+02 0.889E+02 0.704E+01   0.546E+02 -.892E+02 -.706E+01   0.441E-01 -.100E+01 -.253E+00   0.505E-02 0.203E-02 -.482E-02
   -.771E+02 0.444E+02 -.400E+02   0.776E+02 -.445E+02 0.399E+02   0.440E+00 -.602E-01 0.402E+00   0.657E-02 -.149E-03 0.545E-02
   -.118E+02 -.644E+02 -.551E+02   0.114E+02 0.650E+02 0.553E+02   -.186E+00 0.423E+00 0.682E+00   -.528E-02 -.277E-02 -.219E-02
   -.429E+02 -.965E+02 -.349E+02   0.424E+02 0.967E+02 0.349E+02   0.610E+00 0.896E+00 0.755E-01   -.414E-02 -.493E-03 0.283E-02
   -.153E+03 -.730E+02 0.210E+02   0.153E+03 0.736E+02 -.207E+02   0.137E+01 0.462E+00 -.570E-01   -.185E-02 -.105E-01 -.223E-02
   -.980E+02 -.341E+02 -.355E+02   0.986E+02 0.342E+02 0.351E+02   0.153E+00 0.313E+00 0.153E+00   -.274E-02 -.149E-01 0.197E-02
   -.618E+02 0.489E+02 -.111E+02   0.624E+02 -.487E+02 0.118E+02   0.196E+00 -.496E+00 -.773E-01   -.196E-02 0.111E-01 -.494E-02
   -.305E+02 -.247E+02 -.919E+02   0.307E+02 0.249E+02 0.922E+02   0.144E+00 0.459E+00 0.891E+00   -.412E-02 0.135E-01 0.371E-02
   0.142E+03 -.742E+01 0.320E+01   -.144E+03 0.708E+01 -.318E+01   -.549E+00 0.134E-01 -.171E+00   -.102E-02 -.609E-02 -.775E-02
   -.242E+02 0.106E+03 0.146E+02   0.249E+02 -.107E+03 -.145E+02   -.522E-01 0.148E+00 -.506E+00   -.281E-02 -.527E-02 0.626E-02
   0.125E+03 -.304E+02 -.190E+02   -.126E+03 0.315E+02 0.203E+02   -.833E+00 -.259E+00 -.452E+00   0.157E-02 0.681E-02 -.552E-02
   -.106E+02 -.951E+02 -.115E+03   0.106E+02 0.945E+02 0.115E+03   -.233E-02 0.971E+00 0.122E+01   -.634E-03 0.355E-02 0.584E-02
   -.274E+02 -.348E+02 -.296E+02   0.286E+02 0.342E+02 0.300E+02   -.125E+00 0.563E+00 0.295E+00   0.462E-02 0.222E-02 -.911E-02
   0.121E+03 -.243E+02 0.604E+02   -.122E+03 0.243E+02 -.607E+02   -.875E+00 0.595E+00 -.979E+00   0.385E-02 0.493E-02 0.819E-02
   0.552E+02 0.860E+02 -.799E+02   -.564E+02 -.876E+02 0.795E+02   0.123E+00 -.274E+00 0.124E+01   0.923E-03 -.408E-03 -.916E-02
   0.236E+02 -.285E+02 -.726E+02   -.245E+02 0.287E+02 0.733E+02   0.296E+00 -.599E-01 0.426E+00   -.155E-03 -.598E-02 0.960E-02
   0.428E+02 -.782E+02 0.202E+02   -.424E+02 0.781E+02 -.208E+02   -.899E+00 0.409E+00 0.139E+00   0.127E-02 -.232E-02 -.471E-02
   -.134E+00 0.212E+02 -.857E+02   0.192E+00 -.217E+02 0.871E+02   -.517E-02 -.358E+00 0.511E+00   0.393E-02 -.520E-02 0.496E-02
   -.102E+03 0.488E+02 -.946E+02   0.104E+03 -.486E+02 0.950E+02   0.514E-01 0.196E+00 0.870E+00   0.103E-02 0.130E-02 -.809E-02
   0.268E+02 0.796E+02 0.708E+02   -.271E+02 -.799E+02 -.720E+02   0.674E-01 -.371E+00 -.390E+00   0.375E-02 0.562E-02 0.742E-02
   -.105E+03 -.595E+02 0.641E+00   0.106E+03 0.601E+02 -.108E+01   0.225E+00 0.560E+00 0.764E-01   -.149E-03 0.769E-02 0.650E-02
   -.114E+01 0.159E+02 0.904E+02   0.481E+00 -.158E+02 -.904E+02   -.246E+00 0.119E+00 -.959E+00   -.129E-02 0.768E-02 -.506E-02
   -.151E+01 -.582E+02 0.199E+02   0.195E+01 0.583E+02 -.200E+02   -.393E+00 0.453E+00 0.259E+00   -.521E-02 -.867E-02 0.156E-02
   -.107E+03 -.225E+02 0.195E+02   0.107E+03 0.216E+02 -.197E+02   0.116E+01 0.303E+00 -.295E+00   -.437E-02 -.758E-02 -.173E-02
   0.810E+01 -.374E+02 -.707E+02   -.805E+01 0.373E+02 0.716E+02   0.924E-01 0.738E-01 0.108E+00   -.912E-02 0.294E-02 0.408E-03
   -.310E+02 0.698E+02 0.908E+02   0.311E+02 -.700E+02 -.914E+02   0.539E+00 -.968E+00 -.418E+00   -.722E-02 0.477E-02 -.134E-02
   -.152E+02 0.622E+02 0.414E+02   0.155E+02 -.619E+02 -.415E+02   0.397E+00 -.333E+00 -.222E+00   0.252E-02 -.338E-03 0.251E-02
   0.742E+02 -.337E+01 -.398E+02   -.742E+02 0.334E+01 0.396E+02   -.533E+00 0.238E+00 0.652E+00   0.816E-02 -.276E-02 -.256E-02
   0.596E+02 0.698E+02 -.838E+02   -.600E+02 -.708E+02 0.835E+02   -.147E-01 -.303E+00 0.654E+00   0.195E-02 -.249E-02 0.662E-03
   0.106E+03 -.352E+01 0.131E+03   -.105E+03 0.374E+01 -.131E+03   -.901E+00 0.344E+00 -.825E+00   0.212E-02 -.483E-03 -.149E-02
   -.995E+01 0.592E+02 0.256E+01   0.973E+01 -.591E+02 -.189E+01   0.336E-02 -.892E+00 -.316E+00   0.274E-02 0.229E-02 0.302E-02
   -.833E+00 -.843E+02 0.434E+02   0.402E+00 0.846E+02 -.434E+02   0.166E+00 0.600E+00 -.357E+00   0.315E-02 0.646E-03 -.223E-02
   0.719E+02 0.310E+02 -.133E+02   -.734E+02 -.306E+02 0.135E+02   -.506E+00 0.559E-01 -.191E+00   0.924E-02 0.472E-02 0.524E-02
   -.480E+02 -.599E+02 0.252E+02   0.474E+02 0.603E+02 -.249E+02   0.419E+00 0.699E+00 0.120E+00   0.529E-02 0.192E-02 -.602E-02
   0.213E-01 -.155E+03 0.101E+03   -.715E-01 0.155E+03 -.103E+03   0.130E+00 0.115E+01 -.691E+00   -.892E-03 -.349E-02 0.121E-02
   0.129E+02 -.800E+02 -.173E+01   -.127E+02 0.804E+02 0.215E+01   -.155E+00 0.489E+00 -.217E+00   -.624E-02 -.258E-02 -.705E-03
   -.276E+02 0.494E+02 -.155E+02   0.268E+02 -.504E+02 0.158E+02   0.161E+00 -.351E+00 0.183E+00   0.347E-02 -.592E-02 0.310E-02
   -.161E+02 0.217E+02 0.574E+02   0.159E+02 -.217E+02 -.576E+02   -.239E+00 -.395E+00 -.450E+00   0.168E-02 -.814E-02 -.383E-02
   0.967E+02 0.128E+03 0.185E+02   -.976E+02 -.128E+03 -.179E+02   -.879E+00 -.152E+01 -.447E+00   0.742E-03 0.607E-02 0.403E-02
   -.749E+02 0.903E+02 0.510E+02   0.748E+02 -.909E+02 -.517E+02   0.403E+00 -.742E+00 -.102E+00   -.402E-02 0.987E-02 -.503E-02
   -.893E+02 0.253E+02 0.130E+02   0.895E+02 -.245E+02 -.129E+02   0.524E+00 -.429E+00 -.324E+00   -.989E-02 -.870E-02 0.295E-02
   -.370E+02 -.652E+02 0.851E+01   0.372E+02 0.648E+02 -.911E+01   0.166E+00 0.832E+00 0.181E+00   -.493E-02 -.118E-01 -.236E-02
   -.233E+02 -.243E+02 0.551E+02   0.238E+02 0.248E+02 -.552E+02   0.630E-02 -.303E-01 -.920E+00   -.355E-02 0.861E-02 0.416E-02
   -.448E+01 -.198E+02 0.647E+01   0.426E+01 0.203E+02 -.583E+01   0.324E+00 0.178E+00 0.503E-01   -.656E-03 0.110E-01 -.326E-02
   0.541E+02 -.737E+01 -.104E+03   -.546E+02 0.729E+01 0.104E+03   -.467E-01 0.108E+00 0.133E+01   -.131E-02 0.774E-03 -.186E-02
   0.280E+02 0.251E+02 0.161E+02   -.276E+02 -.244E+02 -.154E+02   0.395E-01 -.846E+00 -.194E+00   0.676E-03 -.195E-02 0.193E-02
   -.356E+02 -.779E+02 0.618E+01   0.357E+02 0.779E+02 -.526E+01   0.531E+00 0.826E+00 -.922E+00   0.306E-02 -.193E-02 0.521E-02
   0.699E+01 -.137E+02 0.188E+03   -.584E+01 0.134E+02 -.190E+03   -.124E+00 0.377E+00 -.106E+01   0.555E-02 0.503E-03 -.533E-02
   0.594E+02 -.290E+02 -.147E+02   -.592E+02 0.293E+02 0.155E+02   -.500E-01 0.213E+00 -.329E+00   0.760E-02 0.342E-02 0.287E-03
   -.322E+01 -.322E+02 0.336E+02   0.318E+01 0.330E+02 -.341E+02   0.622E+00 -.239E+00 0.360E-01   0.243E-02 0.264E-03 -.145E-02
   -.377E+02 0.119E+02 0.810E+01   0.382E+02 -.123E+02 -.949E+01   0.793E-01 -.600E-01 0.339E+00   0.172E-03 -.313E-02 0.459E-02
   0.787E+02 0.142E+03 0.127E+03   -.795E+02 -.142E+03 -.127E+03   -.432E+00 -.159E+01 -.988E+00   0.134E-03 0.715E-03 -.350E-02
   -.470E+02 0.133E+02 -.943E+02   0.461E+02 -.134E+02 0.936E+02   0.939E+00 -.507E+00 0.111E+01   0.838E-02 0.233E-02 0.704E-02
 -----------------------------------------------------------------------------------------------
   -.582E+00 -.228E+00 0.371E+00   0.711E-14 -.497E-13 0.199E-12   0.571E+00 0.226E+00 -.368E+00   0.103E-01 0.865E-03 -.307E-02
 
 
 POSITION                                       TOTAL-FORCE (eV/Angst)
 -----------------------------------------------------------------------------------
      3.07813      1.70396      1.12797         0.083977      0.452810      1.407651
      3.03439      2.04967      6.31542         0.606956     -0.685027      0.357190
      3.25188      7.48934      1.48832        -0.815737     -0.784599     -1.345425
      3.48531      7.31082      6.26957        -1.044995      0.262307      0.843725
      6.37592      1.61102      1.34280         0.013933      1.406529     -0.782082
      6.22160      1.88562      6.52358         0.231773     -0.104977     -0.956478
      6.40409      7.57108      1.16989        -0.031143     -1.420873      0.815134
      9.51583      1.78192      1.26775         0.241746      0.490758      0.331180
      9.43076      1.96761      6.36905         0.248615     -1.000893      0.061785
      9.37812      7.43040      1.31556         0.824033     -0.127225     -0.185969
      9.67953      7.20537      6.22558        -0.720297      1.056503      1.471178
     12.58198      2.07638      1.34032         0.585208     -1.303602     -0.272745
     12.48180      1.95940      6.42398         0.987821     -0.106995      0.343047
     12.68062      7.17365      1.20379        -0.564123      0.983155      0.860645
     12.69493      7.20706      6.29987         0.190554      1.067531      0.052002
      1.44106      4.51050      1.27508         1.183623      1.022546      0.198212
      1.38537      4.53516      6.50567         0.698351      0.435485     -0.261345
      1.39141     10.22599      1.21678         0.723670     -0.316164      0.620718
      1.48823      9.88997      6.37226         0.355323      0.605073      1.139670
      5.04930      4.60462      1.23093        -2.009171     -0.330987     -0.152137
      4.69764      4.83812      6.39649         0.643419     -1.027665     -0.410072
      4.92578     10.01859      1.03436        -1.674415      0.794326      0.861607
      4.71264     10.17167      6.14886        -0.038232      0.375965      1.185771
      7.77863      4.51645      1.19421         1.084496     -0.025304      0.652035
      8.16918      4.56496      6.54543        -1.348311      0.647259     -1.281943
      8.11463     10.35830      1.34871        -1.075279     -1.828722      0.837811
      7.93373     10.12997      6.19992        -0.580583      0.164250      1.208286
     11.02483      4.60356      1.32414        -0.499829      0.289617     -0.421904
     11.09969      4.57073      6.15660         0.057256     -0.870769      1.870029
     10.89127     10.00507      1.33597         1.730731      0.386302      1.287724
     11.20428     10.26164      6.63336        -0.222236     -0.681301     -1.554867
      1.45680      0.75985      3.98396         1.356211      1.217379     -0.360384
      1.75354      0.83223      8.95785        -0.905524      0.289290     -0.933324
      1.65849      6.29381      3.86824         0.034470      0.485520      0.203533
      1.38046      6.58555      9.00024         1.250320     -0.601185     -0.537603
      4.67052      0.81836      3.59162         0.130325     -0.043005      1.004028
      4.67350      1.13444      9.00344         0.583966     -1.126851     -1.035636
      4.73529      6.32357      3.80256         0.653041     -0.051010     -0.349210
      4.92083      6.47250      8.86519        -0.444680      0.200441      0.483954
      7.98868      1.14502      3.86435        -0.343071     -1.286159      0.421645
      8.10902      0.77070      9.00433        -0.811258      0.560074     -0.807292
      7.88514      6.57467      3.79820        -0.208415     -0.726678      0.358627
      8.03216      6.24830      8.99927        -0.254311      0.881211     -0.369151
     11.40543      0.85538      3.86473        -1.986573      0.456696     -0.016715
     11.27050      0.82321      9.02902        -0.087792      1.114569      0.440577
     11.08964      6.16786      3.92278         0.076923      1.718441     -2.251572
     11.05422      6.20909      8.85758        -0.006201      0.866474      0.203534
      0.16739      3.80325      3.79769        -0.642342     -1.356294      0.474220
      0.01138      3.73221      9.07310        -0.442803     -0.452341     -0.625558
      0.15007      9.30097      3.78228        -1.741110     -1.959483      0.113640
     12.68508      9.31803      9.14919         0.335535     -1.353009     -0.870611
      3.12915      3.56907      3.75959         0.683463      0.318711     -0.228394
      3.06964      3.74582      9.03485         0.425636      0.496875     -0.414436
      2.99555      9.12945      3.94516         0.578317      0.453490     -1.049660
      3.21532      9.01492      8.83581         0.103782      0.730133      0.693591
      6.40910      3.65745      3.74445        -0.542818      0.041765      0.938276
      6.25892      3.69032      8.80956         0.428402     -0.144831      0.447194
      6.11754      9.04536      3.75307         0.637998      0.815234     -0.001992
      6.49621      9.22259      9.17225         1.030394      0.117705     -3.221916
      9.60755      3.54265      3.70564         0.219044      0.536749      0.423065
      9.50142      3.43019      9.05984         0.590456      0.520125     -0.515376
      9.55290      9.26639      4.07395         0.564591     -0.391397     -1.039423
      9.76602      9.30490      9.07223        -1.265383     -1.518386     -0.752371
      6.49314      7.55199      6.29955         0.132275     -0.635563      0.394310
 -----------------------------------------------------------------------------------
    total drift:                               -0.000658     -0.000459      0.000530


--------------------------------------------------------------------------------------------------------



  FREE ENERGIE OF THE ION-ELECTRON SYSTEM (eV)
  ---------------------------------------------------
  free  energy   TOTEN  =      -571.61797799 eV

  energy  without entropy=     -571.50896540  energy(sigma->0) =     -571.56347169
 


--------------------------------------------------------------------------------------------------------


    POTLOK:  cpu time      0.2746: real time      0.2746


--------------------------------------------------------------------------------------------------------


     LOOP+:  cpu time   1439.6220: real time   1440.8490
    4ORBIT:  cpu time      0.0000: real time      0.0000



 total charge

# of ion       s       p       d       tot
------------------------------------------
    1        2.244   5.953   1.728   9.925
    2        2.231   5.951   1.659   9.842
    3        2.227   5.955   1.638   9.821
    4        2.245   5.951   1.775   9.972
    5        2.244   5.960   1.729   9.932
    6        2.230   5.953   1.654   9.836
    7        2.251   5.956   1.805  10.012
    8        2.257   5.959   1.784   9.999
    9        2.242   5.955   1.725   9.921
   10        2.236   5.953   1.679   9.868
   11        2.247   5.958   1.714   9.919
   12        2.242   5.954   1.736   9.932
   13        2.243   5.953   1.723   9.919
   14        2.232   5.954   1.661   9.847
   15        2.236   5.952   1.685   9.872
   16        2.252   5.957   1.743   9.952
   17        2.243   5.957   1.714   9.914
   18        2.232   5.953   1.699   9.883
   19        2.239   5.959   1.682   9.880
   20        2.234   5.950   1.710   9.894
   21        2.235   5.949   1.716   9.900
   22        2.250   5.953   1.799  10.002
   23        2.233   5.957   1.638   9.828
   24        2.243   5.951   1.756   9.950
   25        2.236   5.954   1.700   9.890
   26        2.258   5.959   1.814  10.030
   27        2.236   5.952   1.667   9.855
   28        2.246   5.961   1.719   9.927
   29        2.261   5.956   1.832  10.049
   30        2.252   5.955   1.784   9.991
   31        2.236   5.957   1.698   9.891
   32        2.247   5.954   1.760   9.961
   33        2.237   5.956   1.704   9.897
   34        2.244   5.958   1.700   9.902
   35        2.234   5.954   1.680   9.868
   36        2.234   5.953   1.666   9.853
   37        2.246   5.954   1.724   9.924
   38        2.248   5.958   1.736   9.941
   39        2.237   5.957   1.673   9.867
   40        2.241   5.955   1.728   9.925
   41        2.241   5.956   1.716   9.913
   42        2.235   5.957   1.653   9.846
   43        2.238   5.954   1.690   9.882
   44        2.238   5.954   1.728   9.920
   45        2.250   5.958   1.761   9.968
   46        2.252   5.956   1.770   9.977
   47        2.235   5.953   1.682   9.870
   48        2.250   5.960   1.774   9.985
   49        2.243   5.957   1.730   9.930
   50        2.247   5.953   1.753   9.952
   51        2.253   5.958   1.757   9.968
   52        2.236   5.955   1.668   9.860
   53        2.240   5.960   1.657   9.857
   54        2.255   5.957   1.777   9.988
   55        2.233   5.952   1.653   9.838
   56        2.239   5.953   1.676   9.868
   57        2.247   5.958   1.722   9.926
   58        2.238   5.963   1.683   9.884
   59        2.239   5.954   1.731   9.923
   60        2.245   5.954   1.738   9.936
   61        2.242   5.958   1.713   9.914
   62        2.233   5.951   1.680   9.864
   63        2.246   5.954   1.753   9.953
   64        2.212   5.968   2.402  10.582
--------------------------------------------------
tot        143.442 381.146 110.605 635.193
 

 total amount of memory used by VASP MPI-rank0   149987. kBytes
=======================================================================

   base      :      30000. kBytes
   nonl-proj :      28780. kBytes
   fftplans  :       9766. kBytes
   grid      :      14853. kBytes
   one-center:        248. kBytes
   wavefun   :      66340. kBytes
 
  
  
 General timing and accounting informations for this job:
 ========================================================
  
                  Total CPU time used (sec):     1452.243
                            User time (sec):     1435.347
                          System time (sec):       16.896
                         Elapsed time (sec):     1454.104
  
                   Maximum memory used (kb):      540236.
                   Average memory used (kb):          N/A
  
                          Minor page faults:        73349
                          Major page faults:            7
                 Voluntary context switches:         3848
