 vasp.6.4.3 19Mar24 (build Nov 18 2024 14:48:31) complex                        
  
 executed on             LinuxIFC date 2026.08.04  09:51:24
 running   32 mpi-ranks, on    1 nodes
 distrk:  each k-point on   32 cores,    1 groups
 distr:  one band on NCORE=   4 cores,    8 groups


--------------------------------------------------------------------------------------------------------


 INCAR:
   SYSTEM = Zr63Nb1-singlepoint
   PREC = Accurate
   ADDGRID = True
   ISTART = 0
   ICHARG = 2
   ISPIN = 1
   LASPH = T
   NCORE = 4
   KSPACING = 0.15
   KGAMMA = True
   ENCUT = 520
   NELM = 200
   NELMIN = 4
   EDIFF = 1E-06
   LREAL = F
   LMIXTAU = True
   LMAXMIX = 4
   EDIFFG = -0.01
   NSW = 0
   IBRION = 2
   ISIF = 2
   ISYM = 0
   ISMEAR = 0
   SIGMA = 0.05
   LWAVE = F
   LCHARG = F
   LVTOT = T
   LVHAR = F
   LELF = F
   LAECHG = False
   LORBIT = 11
   IVDW = 12

 POTCAR:    PAW_PBE Zr_sv 04Jan2005               
 POTCAR:    PAW_PBE Nb_sv 25May2007               
 WARNING: For LVTOT=.TRUE., VASP.5.x writes the TOTAL local potential to the
     file LOCPOT. If you want only the Hartree contributions, use LVHAR=.TRUE.
     instead. 

 POTCAR:    PAW_PBE Zr_sv 04Jan2005               
   SHA256 =  25aed69cb10325f9d37c5c68912b61a17387d1f8e4f1d804860ffa10c8a4bf76 Zr_sv/POTCAR          
   COPYR  = (c) Copyright 04Jan2005 Georg Kresse                                                    
   COPYR  = This file is part of the software VASP. Any use, copying, and all other rights are regul
   COPYR  = If you do not have a valid VASP license, you may not use, copy or distribute this file. 
   VRHFIN =Zr: 4s4p5s4d                                                                             
   LEXCH  = PE                                                                                      
   EATOM  =  1284.2219 eV,   94.3876 Ry                                                             
                                                                                                    
   TITEL  = PAW_PBE Zr_sv 04Jan2005                                                                 
   LULTRA =        F    use ultrasoft PP ?                                                          
   IUNSCR =        1    unscreen: 0-lin 1-nonlin 2-no                                               
   RPACOR =    2.200    partial core radius                                                         
   POMASS =   91.224; ZVAL   =   12.000    mass and valenz                                          
   RCORE  =    2.500    outmost cutoff radius                                                       
   RWIGS  =    3.070; RWIGS  =    1.625    wigner-seitz radius (au A)                               
   ENMAX  =  229.898; ENMIN  =  172.424 eV                                                          
   ICORE  =        3    local potential                                                             
   LCOR   =        T    correct aug charges                                                         
   LPAW   =        T    paw PP                                                                      
   EAUG   =  461.257                                                                                
   DEXC   =    0.000                                                                                
   RMAX   =    2.561    core radius for proj-oper                                                   
   RAUG   =    1.300    factor for augmentation sphere                                              
   RDEP   =    2.597    radius for radial grids                                                     
   RDEPT  =    2.007    core radius for aug-charge                                                  
                                                                                                    
   Atomic configuration                                                                             
   11 entries                                                                                       
     n  l   j            E        occ.                                                              
     1  0  0.50    -17820.0161   2.0000                                                             
     2  0  0.50     -2467.0882   2.0000                                                             
     2  1  1.50     -2199.6095   6.0000                                                             
     3  0  0.50      -402.4863   2.0000                                                             
     3  1  1.50      -315.3675   6.0000                                                             
     3  2  2.50      -172.4472  10.0000                                                             
     4  0  0.50       -52.4146   2.0000                                                             
     5  0  0.50        -3.8421   1.0000                                                             
     4  1  1.50       -30.5054   6.0000                                                             
     4  2  2.50        -2.3341   3.0000                                                             
     4  3  2.50        -1.3606   0.0000                                                             
   Description                                                                                      
     l       E           TYP  RCUT    TYP  RCUT                                                     
     0    -52.4145962     23  2.200                                                                 
     0     -3.8421270     23  2.500                                                                 
     1    -30.5053914     23  2.200                                                                 
     1     20.4087390     23  2.200                                                                 
     2     -2.3340816     23  2.500                                                                 
     2     -0.6120942     23  2.500                                                                 
     3     -4.0817478     23  2.500                                                                 
  local pseudopotential read in
  partial core-charges read in
  partial kinetic energy density read in
  atomic valenz-charges read in
  non local Contribution for L=           0  read in
    real space projection operators read in
  non local Contribution for L=           0  read in
    real space projection operators read in
  non local Contribution for L=           1  read in
    real space projection operators read in
  non local Contribution for L=           1  read in
    real space projection operators read in
  non local Contribution for L=           2  read in
    real space projection operators read in
  non local Contribution for L=           2  read in
    real space projection operators read in
    PAW grid and wavefunctions read in
 
   number of l-projection  operators is LMAX  =           6
   number of lm-projection operators is LMMAX =          18
 
 POTCAR:    PAW_PBE Nb_sv 25May2007               
   SHA256 =  0e8fc07c9fcd1164cf2ade22d0399fd28f85e91cd773dfa6cf24839a48c95e24 Nb_sv/POTCAR          
   COPYR  = (c) Copyright 25May2007 Georg Kresse                                                    
   COPYR  = This file is part of the software VASP. Any use, copying, and all other rights are regul
   COPYR  = If you do not have a valid VASP license, you may not use, copy or distribute this file. 
   VRHFIN =Nb: 4p5s4d                                                                               
   LEXCH  = PE                                                                                      
   EATOM  =  1555.1913 eV,  114.3033 Ry                                                             
                                                                                                    
   TITEL  = PAW_PBE Nb_sv 25May2007                                                                 
   LULTRA =        F    use ultrasoft PP ?                                                          
   IUNSCR =        1    unscreen: 0-lin 1-nonlin 2-no                                               
   RPACOR =    1.800    partial core radius                                                         
   POMASS =   92.910; ZVAL   =   13.000    mass and valenz                                          
   RCORE  =    2.400    outmost cutoff radius                                                       
   RWIGS  =    2.400; RWIGS  =    1.270    wigner-seitz radius (au A)                               
   ENMAX  =  293.235; ENMIN  =  219.927 eV                                                          
   ICORE  =        3    local potential                                                             
   LCOR   =        T    correct aug charges                                                         
   LPAW   =        T    paw PP                                                                      
   EAUG   =  455.659                                                                                
   DEXC   =    0.000                                                                                
   RMAX   =    2.456    core radius for proj-oper                                                   
   RAUG   =    1.300    factor for augmentation sphere                                              
   RDEP   =    2.451    radius for radial grids                                                     
   RDEPT  =    1.956    core radius for aug-charge                                                  
                                                                                                    
   Atomic configuration                                                                             
   11 entries                                                                                       
     n  l   j            E        occ.                                                              
     1  0  0.50    -18805.2457   2.0000                                                             
     2  0  0.50     -2630.2869   2.0000                                                             
     2  1  1.50     -2348.4046   6.0000                                                             
     3  0  0.50      -438.8757   2.0000                                                             
     3  1  1.50      -346.7588   6.0000                                                             
     3  2  2.50      -196.2560  10.0000                                                             
     4  0  0.50       -58.3859   2.0000                                                             
     5  0  0.50        -3.9816   1.0000                                                             
     4  1  1.50       -34.5141   6.0000                                                             
     4  2  2.50        -3.0408   4.0000                                                             
     4  3  2.50        -1.3606   0.0000                                                             
   Description                                                                                      
     l       E           TYP  RCUT    TYP  RCUT                                                     
     0    -58.3859094     23  2.200                                                                 
     0     -3.9816262     23  2.200                                                                 
     1    -34.5140738     23  2.200                                                                 
     1     13.6058260     23  2.200                                                                 
     2     -3.0408010     23  2.200                                                                 
     2     -0.1283038     23  2.200                                                                 
     3     -1.3605826     23  2.400                                                                 
  local pseudopotential read in
  partial core-charges read in
  partial kinetic energy density read in
  atomic valenz-charges read in
  non local Contribution for L=           0  read in
    real space projection operators read in
  non local Contribution for L=           0  read in
    real space projection operators read in
  non local Contribution for L=           1  read in
    real space projection operators read in
  non local Contribution for L=           1  read in
    real space projection operators read in
  non local Contribution for L=           2  read in
    real space projection operators read in
  non local Contribution for L=           2  read in
    real space projection operators read in
    PAW grid and wavefunctions read in
 
   number of l-projection  operators is LMAX  =           6
   number of lm-projection operators is LMMAX =          18
 
 -----------------------------------------------------------------------------
|                                                                             |
|               ----> ADVICE to this user running VASP <----                  |
|                                                                             |
|     You have a (more or less) 'large supercell' and for larger cells it     |
|     might be more efficient to use real-space projection operators.         |
|     Therefore, try LREAL= Auto in the INCAR file.                           |
|     Mind: For very accurate calculation, you might also keep the            |
|     reciprocal projection scheme (i.e. LREAL=.FALSE.).                      |
|                                                                             |
 -----------------------------------------------------------------------------

  PAW_PBE Zr_sv 04Jan2005               :
 energy of atom  1       EATOM=-1284.2219
 kinetic energy error for atom=    0.0043 (will be added to EATOM!!)
  PAW_PBE Nb_sv 25May2007               :
 energy of atom  2       EATOM=-1555.1913
 kinetic energy error for atom=    0.0060 (will be added to EATOM!!)
 
 
 POSCAR: Zr Nb
  positions in direct lattice
  No initial velocities read in
 IVDW         = 12
 VDW_S6       =    1.0000
 VDW_S8       =    0.7875
 VDW_A1       =    0.4289
 VDW_A2       =    4.4407
 VDW_RADIUS   =   50.2022 A
 VDW_CNRADIUS =   21.1671 A


 exchange-correlation table for PE
   RHO(1)=    0.500       N(1)  =     2000
   RHO(2)=  100.500       N(2)  =     4000
 


--------------------------------------------------------------------------------------------------------


 ion  position               nearest neighbor table
   1  0.242  0.154  0.110-  33 2.87  37 2.89  18 3.02  36 3.06  53 3.09  52 3.23  16 3.25  12 3.27
                            22 3.29   5 3.31  32 3.42  20 3.51
   2  0.238  0.186  0.618-  52 2.97  17 2.99  32 3.10  33 3.18   6 3.20  53 3.21  21 3.25  37 3.28
                            13 3.30  23 3.36  36 3.41  19 3.55
   3  0.255  0.679  0.146-  54 2.97  38 2.99  22 3.07  34 3.10   7 3.17  55 3.25  18 3.32  14 3.34
                            20 3.41  35 3.41  39 3.45  16 3.49
   4  0.273  0.663  0.613-  21 2.76  38 2.94  54 2.99  64 3.02  39 3.08  55 3.09  23 3.12  34 3.18
                            19 3.26  17 3.49  35 3.52  15 3.54
   5  0.500  0.146  0.131-  26 2.87  36 2.93  22 3.01  40 3.03  37 3.11   8 3.15  56 3.16  41 3.20
                            24 3.23  20 3.28   1 3.31  57 3.45
   6  0.488  0.171  0.638-  57 2.91  37 3.02  23 3.16   2 3.20   9 3.21  40 3.28  27 3.29  56 3.30
                            41 3.31  25 3.31  21 3.33  36 3.48
   7  0.503  0.686  0.114-  59 2.77  22 2.86  10 2.98  58 2.99  39 3.13   3 3.17  42 3.18  43 3.18
                            20 3.26  26 3.28  24 3.35  38 3.36
   8  0.747  0.162  0.124-  26 2.83  61 2.93  60 3.01  41 3.03  40 3.08  12 3.08  30 3.13   5 3.15
                            45 3.17  28 3.20  24 3.24  44 3.34
   9  0.740  0.178  0.623-  25 2.89  40 3.00  13 3.05  61 3.06  60 3.10  29 3.10  41 3.18   6 3.21
                            27 3.24  31 3.27  44 3.38  45 3.43
  10  0.736  0.674  0.129-   7 2.98  30 2.99  42 3.02  43 3.10  63 3.12  26 3.19  28 3.27  14 3.31
                            62 3.32  24 3.33  46 3.36  47 3.39
  11  0.760  0.653  0.609-  46 2.89  62 2.98  29 2.99  15 3.02  25 3.06  42 3.08  47 3.13  64 3.21
                            43 3.36  27 3.41  31 3.44  63 3.54
  12  0.987  0.188  0.131-  16 2.92  28 2.97  49 2.99  48 3.02  44 3.04   8 3.08  45 3.11   1 3.27
                            18 3.28  32 3.37  33 3.46  30 3.53
  13  0.979  0.178  0.629-  29 2.97  44 2.99  31 3.02   9 3.05  17 3.06  45 3.09  49 3.20  32 3.22
                            48 3.24   2 3.30  33 3.43  19 3.56
  14  0.995  0.650  0.118-  35 2.88  16 3.06  28 3.06  51 3.13  47 3.19  34 3.29  46 3.31  10 3.31
                             3 3.34  50 3.35  30 3.35  18 3.38
  15  0.996  0.653  0.616-  11 3.02  17 3.04  46 3.05  29 3.08  19 3.09  34 3.11  35 3.12  47 3.20
                            50 3.28  31 3.42   4 3.54  51 3.55
  16  0.113  0.409  0.125-  48 2.91  12 2.92  49 2.92  53 3.05  14 3.06  52 3.15  34 3.15  28 3.16
                            35 3.25   1 3.25   3 3.49  20 3.61
  17  0.109  0.411  0.637-   2 2.99  49 3.02  15 3.04  29 3.05  48 3.06  13 3.06  53 3.14  34 3.18
                            35 3.23  21 3.33  52 3.39   4 3.49
  18  0.109  0.927  0.119-  51 2.86  33 2.99  50 3.00   1 3.02  32 3.18  30 3.25  12 3.28   3 3.32
                            54 3.35  14 3.38  55 3.40  22 3.55
  19  0.117  0.897  0.624-  54 2.96  50 2.97  32 3.05  31 3.06  15 3.09  55 3.13  51 3.23  23 3.24
                             4 3.26  33 3.26   2 3.55  13 3.56
  20  0.396  0.417  0.120-  24 2.73  56 3.01  57 3.05  38 3.11  39 3.19  53 3.24   7 3.26   5 3.28
                            52 3.34   3 3.41   1 3.51  16 3.61
  21  0.369  0.439  0.626-   4 2.76  39 2.97  38 2.99  57 3.09   2 3.25  64 3.26  53 3.29  52 3.32
                             6 3.33  17 3.33  56 3.37  25 3.49
  22  0.387  0.908  0.101-  59 2.73   7 2.86   5 3.01   3 3.07  37 3.12  58 3.12  55 3.13  36 3.16
                            26 3.22   1 3.29  18 3.55  54 3.60
  23  0.370  0.922  0.602-  54 2.98  58 3.00  36 3.06   4 3.12   6 3.16  64 3.17  27 3.22  19 3.24
                            55 3.29   2 3.36  37 3.48  59 3.64
  24  0.610  0.409  0.117-  20 2.73  43 2.98  56 3.02  61 3.11  57 3.13   5 3.23   8 3.24  28 3.25
                            60 3.26  42 3.32  10 3.33   7 3.35
  25  0.641  0.414  0.640-   9 2.89  29 2.96  43 2.98  11 3.06  61 3.06  57 3.09   6 3.31  60 3.34
                            42 3.42  56 3.43  64 3.43  21 3.49
  26  0.637  0.939  0.132-  30 2.80   8 2.83   5 2.87  41 2.94  40 3.11  59 3.11  63 3.17  10 3.19
                            22 3.22  62 3.27   7 3.28  58 3.39
  27  0.623  0.918  0.607-  62 2.81  64 2.95  40 3.11  23 3.22  58 3.23   9 3.24  41 3.27   6 3.29
                            31 3.30  11 3.41  59 3.42  63 3.51
  28  0.865  0.417  0.130-  60 2.97  12 2.97  46 3.03  14 3.06  47 3.13  49 3.14  61 3.14  16 3.16
                             8 3.20  48 3.21  24 3.25  10 3.27
  29  0.871  0.414  0.602-  46 2.75  25 2.96  13 2.97  11 2.99  60 3.05  17 3.05  48 3.07  15 3.08
                             9 3.10  47 3.16  49 3.46  61 3.50
  30  0.855  0.907  0.131-  26 2.80  63 2.81  10 2.99  51 3.08   8 3.13  62 3.14  45 3.15  44 3.19
                            50 3.24  18 3.25  14 3.35  12 3.53
  31  0.879  0.930  0.649-  45 2.88  63 2.99  13 3.02  19 3.06  51 3.07  62 3.20  44 3.22   9 3.27
                            27 3.30  15 3.42  11 3.44  50 3.45
  32  0.114  0.069  0.390-  44 2.80  50 2.82  19 3.05  54 3.07   2 3.10  18 3.18  13 3.22  36 3.24
                            52 3.28  48 3.31  12 3.37   1 3.42
  33  0.138  0.075  0.877-   1 2.87  37 2.94  18 2.99  51 3.13   2 3.18  53 3.20  55 3.20  45 3.23
                            19 3.26  49 3.39  13 3.43  12 3.46
  34  0.130  0.571  0.379-  48 2.90  38 3.08  52 3.10   3 3.10  15 3.11  54 3.14  16 3.15  17 3.18
                             4 3.18  14 3.29  46 3.32  50 3.37
  35  0.108  0.597  0.881-  14 2.88  55 3.05  51 3.09  47 3.10  15 3.12  49 3.17  17 3.23  16 3.25
                            53 3.30   3 3.41   4 3.52  39 3.54
  36  0.366  0.074  0.351-   5 2.93  23 3.06   1 3.06  22 3.16  52 3.16  58 3.16  54 3.21  32 3.24
                            56 3.33  40 3.35   2 3.41   6 3.48
  37  0.367  0.103  0.881-   1 2.89  33 2.94  57 3.01   6 3.02  53 3.06   5 3.11  22 3.12   2 3.28
                            41 3.45  59 3.47  55 3.48  23 3.48
  38  0.372  0.573  0.372-   4 2.94   3 2.99  21 2.99  58 3.05  34 3.08  20 3.11  56 3.15  42 3.16
                            52 3.19  64 3.29  54 3.30   7 3.36
  39  0.386  0.587  0.867-  21 2.97  55 3.06   4 3.08  57 3.09  43 3.12   7 3.13  59 3.18  20 3.19
                            64 3.20  53 3.30   3 3.45  35 3.54
  40  0.627  0.104  0.378-  60 2.90  56 2.97   9 3.00   5 3.03   8 3.08  27 3.11  26 3.11   6 3.28
                            62 3.31  36 3.35  44 3.43  58 3.65
  41  0.636  0.070  0.881-  26 2.94  63 3.00  61 3.00   8 3.03  59 3.05  45 3.16   9 3.18   5 3.20
                            27 3.27   6 3.31  37 3.45  57 3.46
  42  0.619  0.596  0.372-  10 3.02  64 3.02  58 3.04  11 3.08  38 3.16   7 3.18  62 3.18  46 3.23
                            56 3.27  24 3.32  25 3.42  60 3.49
  43  0.630  0.566  0.881-  25 2.98  24 2.98  47 3.03  10 3.10  57 3.12  39 3.12  61 3.18   7 3.18
                            59 3.35  11 3.36  64 3.37  63 3.51
  44  0.895  0.078  0.378-  32 2.80  50 2.98  13 2.99  12 3.04  30 3.19  62 3.22  31 3.22  60 3.24
                            48 3.31   8 3.34   9 3.38  40 3.43
  45  0.884  0.075  0.883-  31 2.88  51 2.91  63 2.96  13 3.09  12 3.11  61 3.15  30 3.15  41 3.16
                             8 3.17  33 3.23  49 3.27   9 3.43
  46  0.870  0.559  0.384-  29 2.75  11 2.89  48 2.99  60 3.02  28 3.03  15 3.05  42 3.23  14 3.31
                            34 3.32  10 3.36  62 3.46  50 3.62
  47  0.867  0.563  0.867-  49 3.01  43 3.03  35 3.10  28 3.13  11 3.13  29 3.16  14 3.19  61 3.19
                            15 3.20  63 3.36  10 3.39  51 3.52
  48  0.013  0.345  0.372-  34 2.90  16 2.91  52 2.97  46 2.99  12 3.02  17 3.06  29 3.07  28 3.21
                            13 3.24  32 3.31  44 3.31  60 3.32
  49  0.001  0.338  0.888-  16 2.92  12 2.99  47 3.01  17 3.02  53 3.06  28 3.14  35 3.17  13 3.20
                            45 3.27  61 3.27  33 3.39  29 3.46
  50  0.012  0.843  0.370-  32 2.82  54 2.86  19 2.97  44 2.98  18 3.00  30 3.24  15 3.28  14 3.35
                            62 3.35  34 3.37  31 3.45  46 3.62
  51  0.995  0.845  0.895-  18 2.86  45 2.91  63 2.92  31 3.07  30 3.08  35 3.09  14 3.13  33 3.13
                            19 3.23  55 3.30  47 3.52  15 3.55
  52  0.246  0.324  0.368-  48 2.97   2 2.97  34 3.10  16 3.15  36 3.16  38 3.19   1 3.23  32 3.28
                            56 3.28  21 3.32  20 3.34  17 3.39
  53  0.241  0.340  0.884-  16 3.05  49 3.06  37 3.06   1 3.09  17 3.14  57 3.20  33 3.20   2 3.21
                            20 3.24  21 3.29  39 3.30  35 3.30
  54  0.235  0.828  0.386-  50 2.86  19 2.96   3 2.97  23 2.98   4 2.99  32 3.07  58 3.13  34 3.14
                            36 3.21  38 3.30  18 3.35  22 3.60
  55  0.252  0.817  0.865-  35 3.05  39 3.06   4 3.09  22 3.13  19 3.13  33 3.20   3 3.25  23 3.29
                            51 3.30  59 3.30  18 3.40  37 3.48
  56  0.503  0.332  0.366-  40 2.97  20 3.01  24 3.02  38 3.15   5 3.16  60 3.20  42 3.27  52 3.28
                             6 3.30  36 3.33  21 3.37  25 3.43
  57  0.491  0.335  0.862-   6 2.91  37 3.01  20 3.05  39 3.09  25 3.09  21 3.09  43 3.12  24 3.13
                            53 3.20  61 3.26   5 3.45  41 3.46
  58  0.480  0.820  0.367-  64 2.98   7 2.99  23 3.00  42 3.04  38 3.05  22 3.12  54 3.13  36 3.16
                            27 3.23  26 3.39  62 3.46  40 3.65
  59  0.510  0.836  0.898-  22 2.73   7 2.77  41 3.05  26 3.11  39 3.18  63 3.27  55 3.30  64 3.32
                            43 3.35  27 3.42  37 3.47  23 3.64
  60  0.754  0.321  0.363-  40 2.90  28 2.97   8 3.01  46 3.02  29 3.05   9 3.10  56 3.20  44 3.24
                            24 3.26  48 3.32  25 3.34  42 3.49
  61  0.746  0.311  0.887-   8 2.93  41 3.00   9 3.06  25 3.06  24 3.11  28 3.14  45 3.15  43 3.18
                            47 3.19  57 3.26  49 3.27  29 3.50
  62  0.750  0.840  0.399-  27 2.81  11 2.98  30 3.14  42 3.18  31 3.20  44 3.22  26 3.27  40 3.31
                            10 3.32  50 3.35  58 3.46  46 3.46
  63  0.766  0.843  0.888-  30 2.81  51 2.92  45 2.96  31 2.99  41 3.00  10 3.12  26 3.17  59 3.27
                            47 3.36  27 3.51  43 3.51  11 3.54
  64  0.510  0.685  0.616-  27 2.95  58 2.98   4 3.02  42 3.02  23 3.17  39 3.20  11 3.21  21 3.26
                            38 3.29  59 3.32  43 3.37  25 3.43
 

IMPORTANT INFORMATION: All symmetrisations will be switched off!
NOSYMM: (Re-)initialisation of all symmetry stuff for point group C_1.


----------------------------------------------------------------------------------------

                                     Primitive cell                                     

  volume of cell :    1436.7176

  direct lattice vectors                    reciprocal lattice vectors
    12.743897884  0.000000039  0.000000000     0.078468928  0.000000014  0.000000000
    -0.000001933 11.031495272  0.000000000    -0.000000000  0.090649543  0.000000000
     0.000000000  0.000000000 10.219619642     0.000000000  0.000000000  0.097851000

  length of vectors
    12.743897884 11.031495272 10.219619642     0.078468928  0.090649543  0.097851000

  position of ions in fractional coordinates (direct lattice)
     0.241537871  0.154462812  0.110372664
     0.238105473  0.185801379  0.617970012
     0.255171266  0.678905252  0.145633942
     0.273488786  0.662722320  0.613483467
     0.500311694  0.146038299  0.131394709
     0.488202692  0.170930705  0.638338729
     0.502522027  0.686314833  0.114475243
     0.746697262  0.161530263  0.124050156
     0.740021770  0.178363370  0.623218274
     0.735891455  0.673561998  0.128728455
     0.759542262  0.653163855  0.609179328
     0.987294569  0.188222460  0.131151894
     0.979433761  0.177618527  0.628593118
     0.995035014  0.650288116  0.117792219
     0.996158022  0.653317039  0.616448982
     0.113078634  0.408874536  0.124767915
     0.108708595  0.411109939  0.636585871
     0.109182364  0.926980977  0.119062710
     0.116779861  0.896521689  0.623532110
     0.396213075  0.417406791  0.120447950
     0.368618997  0.438573266  0.625903257
     0.386520981  0.908180210  0.101212914
     0.369796309  0.922056946  0.601672423
     0.610380829  0.409414459  0.116854775
     0.641026620  0.413811616  0.640476486
     0.636746112  0.938975091  0.131972611
     0.622551225  0.918276932  0.606668006
     0.865106728  0.417310824  0.129568709
     0.870981145  0.414334237  0.602429472
     0.854626100  0.906954600  0.130726408
     0.879187778  0.930212808  0.649080965
     0.114313502  0.068879955  0.389834890
     0.137598124  0.075441097  0.876534549
     0.130140369  0.570530872  0.378511581
     0.108323308  0.596976705  0.880682926
     0.366490919  0.074184059  0.351443270
     0.366724156  0.102836156  0.880995527
     0.371573399  0.573228632  0.372084289
     0.386132605  0.586728970  0.867467710
     0.626863053  0.103795745  0.378130505
     0.636305842  0.069863166  0.881082625
     0.618738416  0.595991138  0.371658124
     0.630275088  0.566405740  0.880587364
     0.894971743  0.077539352  0.378167534
     0.884383955  0.074623941  0.883498797
     0.870191863  0.559113318  0.383848018
     0.867412632  0.562850808  0.866723519
     0.013134713  0.344762745  0.371607518
     0.000893142  0.338323527  0.887811783
     0.011776005  0.843129118  0.370099746
     0.995384924  0.844675353  0.895257642
     0.245541448  0.323534550  0.367879788
     0.240871352  0.339556493  0.884068716
     0.235057340  0.827580587  0.386037606
     0.252302546  0.817198514  0.864592608
     0.502915519  0.331545722  0.366398076
     0.491130480  0.334525817  0.862024535
     0.480037241  0.819958124  0.367241250
     0.509750485  0.836023416  0.897514256
     0.753894096  0.321139152  0.362600713
     0.745566512  0.310945399  0.886514451
     0.749606263  0.839993899  0.398639901
     0.766329067  0.843485141  0.887726757
     0.509509805  0.684584045  0.616417120

  ion indices of the primitive-cell ions
   primitive index   ion index
                 1           1
                 2           2
                 3           3
                 4           4
                 5           5
                 6           6
                 7           7
                 8           8
                 9           9
                10          10
                11          11
                12          12
                13          13
                14          14
                15          15
                16          16
                17          17
                18          18
                19          19
                20          20
                21          21
                22          22
                23          23
                24          24
                25          25
                26          26
                27          27
                28          28
                29          29
                30          30
                31          31
                32          32
                33          33
                34          34
                35          35
                36          36
                37          37
                38          38
                39          39
                40          40
                41          41
                42          42
                43          43
                44          44
                45          45
                46          46
                47          47
                48          48
                49          49
                50          50
                51          51
                52          52
                53          53
                54          54
                55          55
                56          56
                57          57
                58          58
                59          59
                60          60
                61          61
                62          62
                63          63
                64          64

----------------------------------------------------------------------------------------

 
 -----------------------------------------------------------------------------
|                                                                             |
|           W    W    AA    RRRRR   N    N  II  N    N   GGGG   !!!           |
|           W    W   A  A   R    R  NN   N  II  NN   N  G    G  !!!           |
|           W    W  A    A  R    R  N N  N  II  N N  N  G       !!!           |
|           W WW W  AAAAAA  RRRRR   N  N N  II  N  N N  G  GGG   !            |
|           WW  WW  A    A  R   R   N   NN  II  N   NN  G    G                |
|           W    W  A    A  R    R  N    N  II  N    N   GGGG   !!!           |
|                                                                             |
|     The requested file  could not be found or opened for reading            |
|     k-point information. Automatic k-point generation is used as a          |
|     fallback, which may lead to unwanted results.                           |
|                                                                             |
 -----------------------------------------------------------------------------

 

Automatic generation of k-mesh.
 Grid dimensions derived from KSPACING:
 generate k-points for:    4    4    5

 Generating k-lattice:

  Cartesian coordinates                     Fractional coordinates (reciprocal lattice)
     0.019617232  0.000000003  0.000000000     0.250000000  0.000000000  0.000000000
    -0.000000000  0.022662386  0.000000000     0.000000000  0.250000000  0.000000000
     0.000000000  0.000000000  0.019570200     0.000000000  0.000000000  0.200000000

  Length of vectors
     0.019617232  0.022662386  0.019570200

  Shift w.r.t. Gamma in fractional coordinates (k-lattice)
     0.000000000  0.000000000  0.000000000

 
 Subroutine IBZKPT returns following result:
 ===========================================
 
 Found     42 irreducible k-points:
 
 Following reciprocal coordinates:
            Coordinates               Weight
  0.000000  0.000000  0.000000      1.000000
  0.250000  0.000000  0.000000      2.000000
  0.500000  0.000000  0.000000      1.000000
 -0.000000  0.250000  0.000000      2.000000
  0.250000  0.250000  0.000000      2.000000
 -0.250000  0.250000  0.000000      2.000000
  0.500000  0.250000  0.000000      2.000000
 -0.000000  0.500000  0.000000      1.000000
  0.250000  0.500000  0.000000      2.000000
  0.500000  0.500000  0.000000      1.000000
  0.000000  0.000000  0.200000      2.000000
  0.250000  0.000000  0.200000      2.000000
 -0.250000 -0.000000  0.200000      2.000000
  0.500000  0.000000  0.200000      2.000000
 -0.000000  0.250000  0.200000      2.000000
  0.000000 -0.250000  0.200000      2.000000
  0.250000  0.250000  0.200000      2.000000
 -0.250000 -0.250000  0.200000      2.000000
 -0.250000  0.250000 -0.200000      2.000000
  0.250000 -0.250000 -0.200000      2.000000
  0.500000  0.250000  0.200000      2.000000
  0.500000 -0.250000  0.200000      2.000000
 -0.000000  0.500000  0.200000      2.000000
  0.250000  0.500000  0.200000      2.000000
 -0.250000  0.500000  0.200000      2.000000
  0.500000  0.500000  0.200000      2.000000
  0.000000  0.000000  0.400000      2.000000
  0.250000  0.000000  0.400000      2.000000
 -0.250000 -0.000000  0.400000      2.000000
  0.500000  0.000000  0.400000      2.000000
 -0.000000  0.250000  0.400000      2.000000
  0.000000 -0.250000  0.400000      2.000000
  0.250000  0.250000  0.400000      2.000000
 -0.250000 -0.250000  0.400000      2.000000
 -0.250000  0.250000 -0.400000      2.000000
  0.250000 -0.250000 -0.400000      2.000000
  0.500000  0.250000  0.400000      2.000000
  0.500000 -0.250000  0.400000      2.000000
 -0.000000  0.500000  0.400000      2.000000
  0.250000  0.500000  0.400000      2.000000
 -0.250000  0.500000  0.400000      2.000000
  0.500000  0.500000  0.400000      2.000000
 
 Following cartesian coordinates:
            Coordinates               Weight
  0.000000  0.000000  0.000000      1.000000
  0.019617  0.000000  0.000000      2.000000
  0.039234  0.000000  0.000000      1.000000
 -0.000000  0.022662  0.000000      2.000000
  0.019617  0.022662  0.000000      2.000000
 -0.019617  0.022662  0.000000      2.000000
  0.039234  0.022662  0.000000      2.000000
 -0.000000  0.045325  0.000000      1.000000
  0.019617  0.045325  0.000000      2.000000
  0.039234  0.045325  0.000000      1.000000
  0.000000  0.000000  0.019570      2.000000
  0.019617  0.000000  0.019570      2.000000
 -0.019617 -0.000000  0.019570      2.000000
  0.039234  0.000000  0.019570      2.000000
 -0.000000  0.022662  0.019570      2.000000
  0.000000 -0.022662  0.019570      2.000000
  0.019617  0.022662  0.019570      2.000000
 -0.019617 -0.022662  0.019570      2.000000
 -0.019617  0.022662 -0.019570      2.000000
  0.019617 -0.022662 -0.019570      2.000000
  0.039234  0.022662  0.019570      2.000000
  0.039234 -0.022662  0.019570      2.000000
 -0.000000  0.045325  0.019570      2.000000
  0.019617  0.045325  0.019570      2.000000
 -0.019617  0.045325  0.019570      2.000000
  0.039234  0.045325  0.019570      2.000000
  0.000000  0.000000  0.039140      2.000000
  0.019617  0.000000  0.039140      2.000000
 -0.019617 -0.000000  0.039140      2.000000
  0.039234  0.000000  0.039140      2.000000
 -0.000000  0.022662  0.039140      2.000000
  0.000000 -0.022662  0.039140      2.000000
  0.019617  0.022662  0.039140      2.000000
 -0.019617 -0.022662  0.039140      2.000000
 -0.019617  0.022662 -0.039140      2.000000
  0.019617 -0.022662 -0.039140      2.000000
  0.039234  0.022662  0.039140      2.000000
  0.039234 -0.022662  0.039140      2.000000
 -0.000000  0.045325  0.039140      2.000000
  0.019617  0.045325  0.039140      2.000000
 -0.019617  0.045325  0.039140      2.000000
  0.039234  0.045325  0.039140      2.000000
 


--------------------------------------------------------------------------------------------------------




 Dimension of arrays:
   k-points           NKPTS =     42   k-points in BZ     NKDIM =     42   number of bands    NBANDS=    464
   number of dos      NEDOS =    301   number of ions     NIONS =     64
   non local maximal  LDIM  =      6   non local SUM 2l+1 LMDIM =     18
   total plane-waves  NPLWV = 645120
   max r-space proj   IRMAX =      1   max aug-charges    IRDMAX= 152313
   dimension x,y,z NGX =    96 NGY =   84 NGZ =   80
   dimension x,y,z NGXF=   192 NGYF=  168 NGZF=  160
   support grid    NGXF=   384 NGYF=  336 NGZF=  320
   ions per type =              63   1
   NGX,Y,Z   is equivalent  to a cutoff of  12.52, 12.66, 13.01 a.u.
   NGXF,Y,Z  is equivalent  to a cutoff of  25.05, 25.32, 26.03 a.u.

 SYSTEM =  Zr63Nb1-singlepoint                     
 POSCAR =  Zr Nb                                   

 Startparameter for this run:
   NWRITE =      2    write-flag & timer
   PREC   = accura    normal or accurate (medium, high low for compatibility)
   ISTART =      0    job   : 0-new  1-cont  2-samecut
   ICHARG =      2    charge: 1-file 2-atom 10-const
   ISPIN  =      1    spin polarized calculation?
   LNONCOLLINEAR =      F non collinear calculations
   LSORBIT =      F    spin-orbit coupling
   INIWAV =      1    electr: 0-lowe 1-rand  2-diag
   LASPH  =      T    aspherical Exc in radial PAW
 Electronic Relaxation 1
   ENCUT  =  520.0 eV  38.22 Ry    6.18 a.u.  23.70 20.51 19.00*2*pi/ulx,y,z
   ENINI  =  520.0     initial cutoff
   ENAUG  =  461.3 eV  augmentation charge cutoff
   NELM   =    200;   NELMIN=  4; NELMDL= -5     # of ELM steps 
   EDIFF  = 0.1E-05   stopping-criterion for ELM
   LREAL  =      F    real-space projection
   NLSPLINE    = F    spline interpolate recip. space projectors
   LCOMPAT=      F    compatible to vasp.4.4
   GGA_COMPAT  = T    GGA compatible to vasp.4.4-vasp.4.6
   LMAXPAW     = -100 max onsite density
   LMAXMIX     =    4 max onsite mixed and CHGCAR
   VOSKOWN=      0    Vosko Wilk Nusair interpolation
   ROPT   =    0.00000   0.00000
 Ionic relaxation
   EDIFFG = -.1E-01   stopping-criterion for IOM
   NSW    =      0    number of steps for IOM
   NBLOCK =      1;   KBLOCK =      1    inner block; outer block 
   IBRION =     -1    ionic relax: 0-MD 1-quasi-New 2-CG
   NFREE  =      1    steps in history (QN), initial steepest desc. (CG)
   ISIF   =      2    stress and relaxation
   IWAVPR =     10    prediction:  0-non 1-charg 2-wave 3-comb
   ISYM   =      0    0-nonsym 1-usesym 2-fastsym
   LCORR  =      T    Harris-Foulkes like correction to forces

   POTIM  = 0.5000    time-step for ionic-motion
   TEIN   =    0.0    initial temperature
   TEBEG  =    0.0;   TEEND  =   0.0 temperature during run
   SMASS  =  -3.00    Nose mass-parameter (am)
   estimated Nose-frequenzy (Omega)   =  0.10E-29 period in steps = 0.13E+47 mass=  -0.371E-26a.u.
   SCALEE = 1.0000    scale energy and forces
   NPACO  =    256;   APACO  = 10.0  distance and # of slots for P.C.
   PSTRESS=    0.0 pullay stress

  Mass of Ions in am
   POMASS =  91.22 92.91
  Ionic Valenz
   ZVAL   =  12.00 13.00
  Atomic Wigner-Seitz radii
   RWIGS  =  -1.00 -1.00
  virtual crystal weights 
   VCA    =   1.00  1.00
   NELECT =     769.0000    total number of electrons
   NUPDOWN=      -1.0000    fix difference up-down

 DOS related values:
   EMIN   =  10.00;   EMAX   =-10.00  energy-range for DOS
   EFERMI =   0.00;   METHOD = LEGACY      
   ISMEAR =     0;   SIGMA  =   0.05  broadening in eV -4-tet -1-fermi 0-gaus

 Electronic relaxation 2 (details)
   IALGO  =     38    algorithm
   LDIAG  =      T    sub-space diagonalisation (order eigenvalues)
   LSUBROT=      F    optimize rotation matrix (better conditioning)
   TURBO    =      0    0=normal 1=particle mesh
   IRESTART =      0    0=no restart 2=restart with 2 vectors
   NREBOOT  =      0    no. of reboots
   NMIN     =      0    reboot dimension
   EREF     =   0.00    reference energy to select bands
   IMIX   =      4    mixing-type and parameters
     AMIX     =   0.40;   BMIX     =  1.00
     AMIX_MAG =   1.60;   BMIX_MAG =  1.00
     AMIN     =   0.10
     WC   =   100.;   INIMIX=   1;  MIXPRE=   1;  MAXMIX= -45

 Intra band minimization:
   WEIMIN = 0.0000     energy-eigenvalue tresh-hold
   EBREAK =  0.54E-09  absolut break condition
   DEPER  =   0.30     relativ break condition  

   TIME   =   0.40     timestep for ELM

  volume/ion in A,a.u.               =      22.45       151.49
  Fermi-wavevector in a.u.,A,eV,Ry     =   1.329209  2.511840 24.038712  1.766796
  Thomas-Fermi vector in A             =   2.458388
 
 Write flags
   LWAVE        =      F    write WAVECAR
   LDOWNSAMPLE  =      F    k-point downsampling of WAVECAR
   LCHARG       =      F    write CHGCAR
   LVTOT        =      T    write LOCPOT, total local potential
   LVHAR        =      F    write LOCPOT, Hartree potential only
   WRT_POTENTIAL= total  ! write potential to hdf5 file
   LELF         =      F    write electronic localiz. function (ELF)
   LORBIT       =     11    0 simple, 1 ext, 2 COOP (PROOUT), +10 PAW based schemes


 Dipole corrections
   LMONO      =      F    monopole corrections only (constant potential shift)
   LDIPOL     =      F    correct potential (dipole corrections)
   IDIPOL     =      0    1-x, 2-y, 3-z, 4-all directions 
   EPSILON    =  1.0000000 bulk dielectric constant
   LVACPOTAV  =      F  vacuum potentials using an averaging scheme for the charge density
   VACPOTFLAT =  0.1000000 required flatness to determine vacuum potential
 Exchange correlation treatment:
   GGA     = PE    functional components
   XC_C    = 1    coefficients multiplying the functional components
   LIBXC   =     F    Libxc                    
   VOSKOWN =     0    Vosko Wilk Nusair interpolation
   LHFCALC =     F    Hartree Fock is set to
   LHFONE  =     F    Hartree Fock one center treatment
   AEXX    =    0.0000 exact exchange contribution

 Parameters of functionals:
   PE:
     No parameter
 
 Van der Waals corrections
   IVDW    =    12    specifies the selected vdW correction

 Linear response parameters
   LEPSILON=     F    determine dielectric tensor
   LRPA    =     F    only Hartree local field effects (RPA)
   LNABLA  =     F    use nabla operator in PAW spheres
   LVEL    =     F    velocity operator in full k-point grid
   CSHIFT  =0.1000    complex shift for real part using Kramers Kronig
   OMEGAMAX=  -1.0    maximum frequency
   DEG_THRESHOLD= 0.2000000E-02 threshold for treating states as degnerate
   RTIME   =   -0.100 relaxation time in fs
  (WPLASMAI=    0.000 imaginary part of plasma frequency in eV, 0.658/RTIME)
   DFIELD  = 0.0000000 0.0000000 0.0000000 field for delta impulse in time
 
  Optional k-point grid parameters
   LKPOINTS_OPT  =     F    use optional k-point grid
   KPOINTS_OPT_MODE=     1    mode for optional k-point grid
 
 Orbital magnetization related:
   ORBITALMAG=     F  switch on orbital magnetization
   LCHIMAG   =     F  perturbation theory with respect to B field
   DQ        =  0.001000  dq finite difference perturbation B field
   LLRAUG    =     F  two centre corrections for induced B field
   LBONE     =     F  B-component reconstruction in AE one-centre
   LVGVCALC  =     T  calculate vGv susceptibility
   LVGVAPPL  =     F  apply vGv susceptibility instead of pGv for G=0

 Random number generation:
   RANDOM_GENERATOR = DEFAULT
   PCG_SEED         = not used


--------------------------------------------------------------------------------------------------------


 Static calculation
 charge density and potential will be updated during run
 non-spin polarized calculation
 Variant of blocked Davidson
 Davidson routine will perform the subspace rotation
 perform sub-space diagonalisation
    after iterative eigenvector-optimisation
 modified Broyden-mixing scheme, WC =      100.0
 initial mixing is a Kerker type mixing with AMIX =  0.4000 and BMIX =      1.0000
 Hartree-type preconditioning will be used
 using additional bands           79
 reciprocal scheme for non local part
 use partial core corrections
 calculate Harris-corrections to forces 
   (improved forces if not selfconsistent)
 use gradient corrections 
 use of overlap-Matrix (Vanderbilt PP)
 Gauss-broadening in eV      SIGMA  =   0.05


--------------------------------------------------------------------------------------------------------


  energy-cutoff  :      520.00
  volume of cell :     1436.72
      direct lattice vectors                 reciprocal lattice vectors
    12.743897884  0.000000039  0.000000000     0.078468928  0.000000014  0.000000000
    -0.000001933 11.031495272  0.000000000    -0.000000000  0.090649543  0.000000000
     0.000000000  0.000000000 10.219619642     0.000000000  0.000000000  0.097851000

  length of vectors
    12.743897884 11.031495272 10.219619642     0.078468928  0.090649543  0.097851000


 
 k-points in units of 2pi/SCALE and weight: read from INCAR                         
   0.00000000  0.00000000  0.00000000       0.013
   0.01961723  0.00000000  0.00000000       0.025
   0.03923446  0.00000001  0.00000000       0.013
  -0.00000000  0.02266239  0.00000000       0.025
   0.01961723  0.02266239  0.00000000       0.025
  -0.01961723  0.02266238  0.00000000       0.025
   0.03923446  0.02266239  0.00000000       0.025
  -0.00000000  0.04532477  0.00000000       0.013
   0.01961723  0.04532477  0.00000000       0.025
   0.03923446  0.04532478  0.00000000       0.013
   0.00000000  0.00000000  0.01957020       0.025
   0.01961723  0.00000000  0.01957020       0.025
  -0.01961723 -0.00000000  0.01957020       0.025
   0.03923446  0.00000001  0.01957020       0.025
  -0.00000000  0.02266239  0.01957020       0.025
   0.00000000 -0.02266239  0.01957020       0.025
   0.01961723  0.02266239  0.01957020       0.025
  -0.01961723 -0.02266239  0.01957020       0.025
  -0.01961723  0.02266238 -0.01957020       0.025
   0.01961723 -0.02266238 -0.01957020       0.025
   0.03923446  0.02266239  0.01957020       0.025
   0.03923446 -0.02266238  0.01957020       0.025
  -0.00000000  0.04532477  0.01957020       0.025
   0.01961723  0.04532477  0.01957020       0.025
  -0.01961723  0.04532477  0.01957020       0.025
   0.03923446  0.04532478  0.01957020       0.025
   0.00000000  0.00000000  0.03914040       0.025
   0.01961723  0.00000000  0.03914040       0.025
  -0.01961723 -0.00000000  0.03914040       0.025
   0.03923446  0.00000001  0.03914040       0.025
  -0.00000000  0.02266239  0.03914040       0.025
   0.00000000 -0.02266239  0.03914040       0.025
   0.01961723  0.02266239  0.03914040       0.025
  -0.01961723 -0.02266239  0.03914040       0.025
  -0.01961723  0.02266238 -0.03914040       0.025
   0.01961723 -0.02266238 -0.03914040       0.025
   0.03923446  0.02266239  0.03914040       0.025
   0.03923446 -0.02266238  0.03914040       0.025
  -0.00000000  0.04532477  0.03914040       0.025
   0.01961723  0.04532477  0.03914040       0.025
  -0.01961723  0.04532477  0.03914040       0.025
   0.03923446  0.04532478  0.03914040       0.025
 
 k-points in reciprocal lattice and weights: read from INCAR                         
   0.00000000  0.00000000  0.00000000       0.013
   0.25000000  0.00000000  0.00000000       0.025
   0.50000000  0.00000000  0.00000000       0.013
  -0.00000000  0.25000000  0.00000000       0.025
   0.25000000  0.25000000  0.00000000       0.025
  -0.25000000  0.25000000  0.00000000       0.025
   0.50000000  0.25000000  0.00000000       0.025
  -0.00000000  0.50000000  0.00000000       0.013
   0.25000000  0.50000000  0.00000000       0.025
   0.50000000  0.50000000  0.00000000       0.013
   0.00000000  0.00000000  0.20000000       0.025
   0.25000000  0.00000000  0.20000000       0.025
  -0.25000000 -0.00000000  0.20000000       0.025
   0.50000000  0.00000000  0.20000000       0.025
  -0.00000000  0.25000000  0.20000000       0.025
   0.00000000 -0.25000000  0.20000000       0.025
   0.25000000  0.25000000  0.20000000       0.025
  -0.25000000 -0.25000000  0.20000000       0.025
  -0.25000000  0.25000000 -0.20000000       0.025
   0.25000000 -0.25000000 -0.20000000       0.025
   0.50000000  0.25000000  0.20000000       0.025
   0.50000000 -0.25000000  0.20000000       0.025
  -0.00000000  0.50000000  0.20000000       0.025
   0.25000000  0.50000000  0.20000000       0.025
  -0.25000000  0.50000000  0.20000000       0.025
   0.50000000  0.50000000  0.20000000       0.025
   0.00000000  0.00000000  0.40000000       0.025
   0.25000000  0.00000000  0.40000000       0.025
  -0.25000000 -0.00000000  0.40000000       0.025
   0.50000000  0.00000000  0.40000000       0.025
  -0.00000000  0.25000000  0.40000000       0.025
   0.00000000 -0.25000000  0.40000000       0.025
   0.25000000  0.25000000  0.40000000       0.025
  -0.25000000 -0.25000000  0.40000000       0.025
  -0.25000000  0.25000000 -0.40000000       0.025
   0.25000000 -0.25000000 -0.40000000       0.025
   0.50000000  0.25000000  0.40000000       0.025
   0.50000000 -0.25000000  0.40000000       0.025
  -0.00000000  0.50000000  0.40000000       0.025
   0.25000000  0.50000000  0.40000000       0.025
  -0.25000000  0.50000000  0.40000000       0.025
   0.50000000  0.50000000  0.40000000       0.025
 
 position of ions in fractional coordinates (direct lattice) 
   0.24153787  0.15446281  0.11037266
   0.23810547  0.18580138  0.61797001
   0.25517127  0.67890525  0.14563394
   0.27348879  0.66272232  0.61348347
   0.50031169  0.14603830  0.13139471
   0.48820269  0.17093070  0.63833873
   0.50252203  0.68631483  0.11447524
   0.74669726  0.16153026  0.12405016
   0.74002177  0.17836337  0.62321827
   0.73589146  0.67356200  0.12872846
   0.75954226  0.65316386  0.60917933
   0.98729457  0.18822246  0.13115189
   0.97943376  0.17761853  0.62859312
   0.99503501  0.65028812  0.11779222
   0.99615802  0.65331704  0.61644898
   0.11307863  0.40887454  0.12476791
   0.10870860  0.41110994  0.63658587
   0.10918236  0.92698098  0.11906271
   0.11677986  0.89652169  0.62353211
   0.39621307  0.41740679  0.12044795
   0.36861900  0.43857327  0.62590326
   0.38652098  0.90818021  0.10121291
   0.36979631  0.92205695  0.60167242
   0.61038083  0.40941446  0.11685477
   0.64102662  0.41381162  0.64047649
   0.63674611  0.93897509  0.13197261
   0.62255123  0.91827693  0.60666801
   0.86510673  0.41731082  0.12956871
   0.87098115  0.41433424  0.60242947
   0.85462610  0.90695460  0.13072641
   0.87918778  0.93021281  0.64908097
   0.11431350  0.06887995  0.38983489
   0.13759812  0.07544110  0.87653455
   0.13014037  0.57053087  0.37851158
   0.10832331  0.59697670  0.88068293
   0.36649092  0.07418406  0.35144327
   0.36672416  0.10283616  0.88099553
   0.37157340  0.57322863  0.37208429
   0.38613260  0.58672897  0.86746771
   0.62686305  0.10379574  0.37813051
   0.63630584  0.06986317  0.88108262
   0.61873842  0.59599114  0.37165812
   0.63027509  0.56640574  0.88058736
   0.89497174  0.07753935  0.37816753
   0.88438396  0.07462394  0.88349880
   0.87019186  0.55911332  0.38384802
   0.86741263  0.56285081  0.86672352
   0.01313471  0.34476274  0.37160752
   0.00089314  0.33832353  0.88781178
   0.01177600  0.84312912  0.37009975
   0.99538492  0.84467535  0.89525764
   0.24554145  0.32353455  0.36787979
   0.24087135  0.33955649  0.88406872
   0.23505734  0.82758059  0.38603761
   0.25230255  0.81719851  0.86459261
   0.50291552  0.33154572  0.36639808
   0.49113048  0.33452582  0.86202454
   0.48003724  0.81995812  0.36724125
   0.50975048  0.83602342  0.89751426
   0.75389410  0.32113915  0.36260071
   0.74556651  0.31094540  0.88651445
   0.74960626  0.83999390  0.39863990
   0.76632907  0.84348514  0.88772676
   0.50950980  0.68458404  0.61641712
 
 position of ions in cartesian coordinates  (Angst):
   3.07813366  1.70395579  1.12796665
   3.03439147  2.04966704  6.31541847
   3.25187525  7.48934009  1.48832349
   3.48531188  7.31081815  6.26956769
   6.37592086  1.61102082  1.34280395
   6.22160492  1.88562128  6.52357901
   6.40408807  7.57107885  1.16989344
   9.51583334  1.78192036  1.26774541
   9.43076152  1.96761470  6.36905371
   9.37812426  7.43039603  1.31555585
   9.67952776  7.20537401  6.22558103
  12.58198081  2.07637522  1.34032247
  12.48180349  1.95939798  6.42398258
  12.68062335  7.17365032  1.20379168
  12.69493485  7.20706386  6.29987412
   1.44106178  4.51049752  1.27508063
   1.38537044  4.53515735  6.50566547
   1.39140710 10.22598627  1.21677561
   1.48822889  9.88997478  6.37226100
   5.04929816  4.60462106  1.23093224
   4.69764201  4.83811893  6.39649322
   4.92578216 10.01858571  1.03435748
   4.71264462 10.17166686  6.14886331
   7.77863017  4.51645369  1.19421135
   8.16917698  4.56496091  6.54542608
   8.11462562 10.35829930  1.34870989
   7.93372747 10.12996766  6.19991627
  11.02483100  4.60356242  1.32414292
  11.09969397  4.57072621  6.15660006
  10.89126599 10.00506542  1.33597417
  11.20427746 10.26163823  6.63336058
   1.45679946  0.75984890  3.98396430
   1.75353629  0.83222811  8.95784969
   1.65849447  6.29380862  3.86824439
   1.38046002  6.58554570  9.00024453
   4.67052270  0.81836111  3.59161655
   4.67349500  1.13443658  9.00343919
   4.73529235  6.32356896  3.80255991
   4.92083335  6.47249787  8.86519005
   7.98867854  1.14502229  3.86434994
   8.10901654  0.77069521  9.00432930
   7.88513804  6.57467344  3.79820466
   8.03216026  6.24830227  8.99926792
  11.40542835  0.85537503  3.86472836
  11.27049867  0.82321369  9.02902166
  11.08963516  6.16785596  3.92278074
  11.05421692  6.20908606  8.85758470
   0.16738678  3.80324859  3.79768749
   0.01138146  3.73221439  9.07309874
   0.15007057  9.30097488  3.78227863
  12.68508219  9.31803220  9.14919258
   3.12915452  3.56906987  3.75959151
   3.06963926  3.74581586  9.03484601
   2.99554514  9.12945134  3.94515750
   3.21531630  9.01492155  8.83580760
   6.40910338  3.65744508  3.74444897
   6.25891604  3.69031999  8.80956287
   6.11754399  9.04536419  3.75306589
   6.49620651  9.22258838  9.17225432
   9.60754876  3.54264507  3.70564137
   9.50142290  3.43019273  9.05984050
   9.55290405  9.26638875  4.07394816
   9.76601775  9.30490237  9.07222980
   6.49313960  7.55198567  6.29954851
 


--------------------------------------------------------------------------------------------------------


 k-point     1 :   0.0000 0.0000 0.0000  plane waves:   38669
 k-point     2 :   0.2500 0.0000 0.0000  plane waves:   38663
 k-point     3 :   0.5000 0.0000 0.0000  plane waves:   38636
 k-point     4 :  -0.0000 0.2500 0.0000  plane waves:   38699
 k-point     5 :   0.2500 0.2500 0.0000  plane waves:   38692
 k-point     6 :  -0.2500 0.2500 0.0000  plane waves:   38692
 k-point     7 :   0.5000 0.2500 0.0000  plane waves:   38646
 k-point     8 :  -0.0000 0.5000 0.0000  plane waves:   38670
 k-point     9 :   0.2500 0.5000 0.0000  plane waves:   38614
 k-point    10 :   0.5000 0.5000 0.0000  plane waves:   38616
 k-point    11 :   0.0000 0.0000 0.2000  plane waves:   38712
 k-point    12 :   0.2500 0.0000 0.2000  plane waves:   38697
 k-point    13 :  -0.2500-0.0000 0.2000  plane waves:   38697
 k-point    14 :   0.5000 0.0000 0.2000  plane waves:   38662
 k-point    15 :  -0.0000 0.2500 0.2000  plane waves:   38697
 k-point    16 :   0.0000-0.2500 0.2000  plane waves:   38697
 k-point    17 :   0.2500 0.2500 0.2000  plane waves:   38679
 k-point    18 :  -0.2500-0.2500 0.2000  plane waves:   38679
 k-point    19 :  -0.2500 0.2500-0.2000  plane waves:   38679
 k-point    20 :   0.2500-0.2500-0.2000  plane waves:   38679
 k-point    21 :   0.5000 0.2500 0.2000  plane waves:   38684
 k-point    22 :   0.5000-0.2500 0.2000  plane waves:   38684
 k-point    23 :  -0.0000 0.5000 0.2000  plane waves:   38682
 k-point    24 :   0.2500 0.5000 0.2000  plane waves:   38682
 k-point    25 :  -0.2500 0.5000 0.2000  plane waves:   38682
 k-point    26 :   0.5000 0.5000 0.2000  plane waves:   38668
 k-point    27 :   0.0000 0.0000 0.4000  plane waves:   38716
 k-point    28 :   0.2500 0.0000 0.4000  plane waves:   38696
 k-point    29 :  -0.2500-0.0000 0.4000  plane waves:   38696
 k-point    30 :   0.5000 0.0000 0.4000  plane waves:   38736
 k-point    31 :  -0.0000 0.2500 0.4000  plane waves:   38675
 k-point    32 :   0.0000-0.2500 0.4000  plane waves:   38675
 k-point    33 :   0.2500 0.2500 0.4000  plane waves:   38690
 k-point    34 :  -0.2500-0.2500 0.4000  plane waves:   38690
 k-point    35 :  -0.2500 0.2500-0.4000  plane waves:   38690
 k-point    36 :   0.2500-0.2500-0.4000  plane waves:   38690
 k-point    37 :   0.5000 0.2500 0.4000  plane waves:   38704
 k-point    38 :   0.5000-0.2500 0.4000  plane waves:   38704
 k-point    39 :  -0.0000 0.5000 0.4000  plane waves:   38646
 k-point    40 :   0.2500 0.5000 0.4000  plane waves:   38688
 k-point    41 :  -0.2500 0.5000 0.4000  plane waves:   38688
 k-point    42 :   0.5000 0.5000 0.4000  plane waves:   38648

 maximum and minimum number of plane-waves per node :      9732     9621

 maximum number of plane-waves:     38736
 maximum index in each direction: 
   IXMAX=   23   IYMAX=   20   IZMAX=   19
   IXMIN=  -24   IYMIN=  -21   IZMIN=  -19


 parallel 3D FFT for wavefunctions:
    minimum data exchange during FFTs selected (reduces bandwidth)
 parallel 3D FFT for charge:
    minimum data exchange during FFTs selected (reduces bandwidth)


 total amount of memory used by VASP MPI-rank0   589702. kBytes
=======================================================================

   base      :      30000. kBytes
   nonl-proj :     126896. kBytes
   fftplans  :      28444. kBytes
   grid      :      15914. kBytes
   one-center:        248. kBytes
   wavefun   :     388200. kBytes
 
     INWAV:  cpu time      0.0000: real time      0.0000
 Broyden mixing: mesh for mixing (old mesh)
   NGX = 47   NGY = 41   NGZ = 39
  (NGX  =192   NGY  =168   NGZ  =160)
  gives a total of  75153 points

 initial charge density was supplied:
 charge density of overlapping atoms calculated
 number of electron     769.0000000 magnetization 
 keeping initial charge density in first step


--------------------------------------------------------------------------------------------------------


 Maximum index for augmentation-charges         5090 (set IRDMAX)


--------------------------------------------------------------------------------------------------------


 First call to EWALD:  gamma=   0.157
 Maximum number of real-space cells 2x 3x 3
 Maximum number of reciprocal cells 3x 3x 3

    FEWALD:  cpu time      0.0019: real time      0.0018


--------------------------------------- Ionic step        1  -------------------------------------------




--------------------------------------- Iteration      1(   1)  ---------------------------------------


    POTLOK:  cpu time      0.1020: real time      0.1021
    SETDIJ:  cpu time      0.3029: real time      0.3029
     EDDAV:  cpu time    278.7329: real time    279.0042
       DOS:  cpu time      0.0020: real time      0.0020
    --------------------------------------------
      LOOP:  cpu time    279.1399: real time    279.4112

 eigenvalue-minimisations  : 38976
 total energy-change (2. order) : 0.9318223E+04  (-0.4017766E+05)
 number of electron     769.0000000 magnetization 
 augmentation part      769.0000000 magnetization 

 Free energy of the ion-electron system (eV)
  ---------------------------------------------------
  alpha Z        PSCENC =      3794.98599260
  Ewald energy   TEWEN  =    -67551.22900900
  -Hartree energ DENC   =    -14761.79624203
  -exchange      EXHF   =         0.00000000
  -V(xc)+E(xc)   XCENC  =      3210.85449104
  PAW double counting   =     64489.41963698   -63275.37370488
  entropy T*S    EENTRO =        -0.02852296
  eigenvalues    EBANDS =       950.49417996
  atomic energy  EATOM  =     82460.89627108
  Solvation  Ediel_sol  =         0.00000000
  ---------------------------------------------------
  free energy    TOTEN  =      9318.22309280 eV

  energy without entropy =     9318.25161575  energy(sigma->0) =     9318.23735427


--------------------------------------------------------------------------------------------------------




--------------------------------------- Iteration      1(   2)  ---------------------------------------


     EDDAV:  cpu time    283.5134: real time    283.8840
       DOS:  cpu time      0.0030: real time      0.0030
    --------------------------------------------
      LOOP:  cpu time    283.5164: real time    283.8870

 eigenvalue-minimisations  : 39520
 total energy-change (2. order) :-0.8843718E+04  (-0.8631298E+04)
 number of electron     769.0000000 magnetization 
 augmentation part      769.0000000 magnetization 

 Free energy of the ion-electron system (eV)
  ---------------------------------------------------
  alpha Z        PSCENC =      3794.98599260
  Ewald energy   TEWEN  =    -67551.22900900
  -Hartree energ DENC   =    -14761.79624203
  -exchange      EXHF   =         0.00000000
  -V(xc)+E(xc)   XCENC  =      3210.85449104
  PAW double counting   =     64489.41963698   -63275.37370488
  entropy T*S    EENTRO =        -0.06305711
  eigenvalues    EBANDS =     -7893.18900683
  atomic energy  EATOM  =     82460.89627108
  Solvation  Ediel_sol  =         0.00000000
  ---------------------------------------------------
  free energy    TOTEN  =       474.50537185 eV

  energy without entropy =      474.56842897  energy(sigma->0) =      474.53690041


--------------------------------------------------------------------------------------------------------




--------------------------------------- Iteration      1(   3)  ---------------------------------------


     EDDAV:  cpu time    405.9517: real time    406.0745
       DOS:  cpu time      0.0028: real time      0.0028
    --------------------------------------------
      LOOP:  cpu time    405.9545: real time    406.0773

 eigenvalue-minimisations  : 61256
 total energy-change (2. order) :-0.8862357E+03  (-0.8290590E+03)
 number of electron     769.0000000 magnetization 
 augmentation part      769.0000000 magnetization 

 Free energy of the ion-electron system (eV)
  ---------------------------------------------------
  alpha Z        PSCENC =      3794.98599260
  Ewald energy   TEWEN  =    -67551.22900900
  -Hartree energ DENC   =    -14761.79624203
  -exchange      EXHF   =         0.00000000
  -V(xc)+E(xc)   XCENC  =      3210.85449104
  PAW double counting   =     64489.41963698   -63275.37370488
  entropy T*S    EENTRO =        -0.08315714
  eigenvalues    EBANDS =     -8779.40457231
  atomic energy  EATOM  =     82460.89627108
  Solvation  Ediel_sol  =         0.00000000
  ---------------------------------------------------
  free energy    TOTEN  =      -411.73029366 eV

  energy without entropy =     -411.64713652  energy(sigma->0) =     -411.68871509


--------------------------------------------------------------------------------------------------------




--------------------------------------- Iteration      1(   4)  ---------------------------------------


     EDDAV:  cpu time    426.1257: real time    426.2924
       DOS:  cpu time      0.0033: real time      0.0033
    --------------------------------------------
      LOOP:  cpu time    426.1290: real time    426.2957

 eigenvalue-minimisations  : 64920
 total energy-change (2. order) :-0.1313091E+03  (-0.1265372E+03)
 number of electron     769.0000000 magnetization 
 augmentation part      769.0000000 magnetization 

 Free energy of the ion-electron system (eV)
  ---------------------------------------------------
  alpha Z        PSCENC =      3794.98599260
  Ewald energy   TEWEN  =    -67551.22900900
  -Hartree energ DENC   =    -14761.79624203
  -exchange      EXHF   =         0.00000000
  -V(xc)+E(xc)   XCENC  =      3210.85449104
  PAW double counting   =     64489.41963698   -63275.37370488
  entropy T*S    EENTRO =        -0.09203350
  eigenvalues    EBANDS =     -8910.70483040
  atomic energy  EATOM  =     82460.89627108
  Solvation  Ediel_sol  =         0.00000000
  ---------------------------------------------------
  free energy    TOTEN  =      -543.03942811 eV

  energy without entropy =     -542.94739461  energy(sigma->0) =     -542.99341136


--------------------------------------------------------------------------------------------------------




--------------------------------------- Iteration      1(   5)  ---------------------------------------


     EDDAV:  cpu time    414.7079: real time    414.8655
       DOS:  cpu time      0.0031: real time      0.0031
    CHARGE:  cpu time      2.5989: real time      2.5992
    MIXING:  cpu time      0.0104: real time      0.0104
    --------------------------------------------
      LOOP:  cpu time    417.3202: real time    417.4781

 eigenvalue-minimisations  : 62848
 total energy-change (2. order) :-0.1516742E+02  (-0.1496860E+02)
 number of electron     769.0000001 magnetization 
 augmentation part       10.7467575 magnetization 

 Broyden mixing:
  rms(total) = 0.90897E+01    rms(broyden)= 0.90897E+01
  rms(prec ) = 0.93585E+01
  weight for this iteration     100.00

 Free energy of the ion-electron system (eV)
  ---------------------------------------------------
  alpha Z        PSCENC =      3794.98599260
  Ewald energy   TEWEN  =    -67551.22900900
  -Hartree energ DENC   =    -14761.79624203
  -exchange      EXHF   =         0.00000000
  -V(xc)+E(xc)   XCENC  =      3210.85449104
  PAW double counting   =     64489.41963698   -63275.37370488
  entropy T*S    EENTRO =        -0.09390956
  eigenvalues    EBANDS =     -8925.87037840
  atomic energy  EATOM  =     82460.89627108
  Solvation  Ediel_sol  =         0.00000000
  ---------------------------------------------------
  free energy    TOTEN  =      -558.20685217 eV

  energy without entropy =     -558.11294261  energy(sigma->0) =     -558.15989739


--------------------------------------------------------------------------------------------------------




--------------------------------------- Iteration      1(   6)  ---------------------------------------


    POTLOK:  cpu time      0.0993: real time      0.1061
    SETDIJ:  cpu time      0.3396: real time      0.3397
     EDDAV:  cpu time    339.9299: real time    340.0566
       DOS:  cpu time      0.0030: real time      0.0030
    CHARGE:  cpu time      2.5993: real time      2.5995
    MIXING:  cpu time      0.0092: real time      0.0092
    --------------------------------------------
      LOOP:  cpu time    342.9802: real time    343.1141

 eigenvalue-minimisations  : 49624
 total energy-change (2. order) : 0.1462657E+02  (-0.6302866E+01)
 number of electron     769.0000001 magnetization 
 augmentation part       14.0783764 magnetization 

 Broyden mixing:
  rms(total) = 0.37247E+01    rms(broyden)= 0.37247E+01
  rms(prec ) = 0.45825E+01
  weight for this iteration     100.00

 eigenvalues of (default mixing * dielectric matrix)
  average eigenvalue GAMMA=   1.5802
  1.5802

 Free energy of the ion-electron system (eV)
  ---------------------------------------------------
  alpha Z        PSCENC =      3794.98599260
  Ewald energy   TEWEN  =    -67551.22900900
  -Hartree energ DENC   =    -14249.86788873
  -exchange      EXHF   =         0.00000000
  -V(xc)+E(xc)   XCENC  =      3180.90752853
  PAW double counting   =     81006.91020444   -79796.27453878
  entropy T*S    EENTRO =        -0.09983091
  eigenvalues    EBANDS =     -9389.80901266
  atomic energy  EATOM  =     82460.89627108
  Solvation  Ediel_sol  =         0.00000000
  ---------------------------------------------------
  free energy    TOTEN  =      -543.58028344 eV

  energy without entropy =     -543.48045253  energy(sigma->0) =     -543.53036799


--------------------------------------------------------------------------------------------------------




--------------------------------------- Iteration      1(   7)  ---------------------------------------


    POTLOK:  cpu time      0.0993: real time      0.1042
    SETDIJ:  cpu time      0.3434: real time      0.3437
     EDDAV:  cpu time    375.6518: real time    375.7798
       DOS:  cpu time      0.0030: real time      0.0030
    CHARGE:  cpu time      2.5845: real time      2.5851
    MIXING:  cpu time      0.0103: real time      0.0103
    --------------------------------------------
      LOOP:  cpu time    378.6922: real time    378.8260

 eigenvalue-minimisations  : 56024
 total energy-change (2. order) :-0.2831449E+02  (-0.1152417E+02)
 number of electron     769.0000001 magnetization 
 augmentation part       16.4303193 magnetization 

 Broyden mixing:
  rms(total) = 0.29216E+01    rms(broyden)= 0.29216E+01
  rms(prec ) = 0.85862E+01
  weight for this iteration     100.00

 eigenvalues of (default mixing * dielectric matrix)
  average eigenvalue GAMMA=   0.9951
  1.6504  0.3398

 Free energy of the ion-electron system (eV)
  ---------------------------------------------------
  alpha Z        PSCENC =      3794.98599260
  Ewald energy   TEWEN  =    -67551.22900900
  -Hartree energ DENC   =    -13979.79531311
  -exchange      EXHF   =         0.00000000
  -V(xc)+E(xc)   XCENC  =      3167.28080459
  PAW double counting   =     90519.76991520   -89294.24186645
  entropy T*S    EENTRO =        -0.10471731
  eigenvalues    EBANDS =     -9689.45685030
  atomic energy  EATOM  =     82460.89627108
  Solvation  Ediel_sol  =         0.00000000
  ---------------------------------------------------
  free energy    TOTEN  =      -571.89477270 eV

  energy without entropy =     -571.79005539  energy(sigma->0) =     -571.84241405


--------------------------------------------------------------------------------------------------------




--------------------------------------- Iteration      1(   8)  ---------------------------------------


    POTLOK:  cpu time      0.0993: real time      0.1050
    SETDIJ:  cpu time      0.3414: real time      0.3414
     EDDAV:  cpu time    359.6319: real time    359.7540
       DOS:  cpu time      0.0027: real time      0.0027
    CHARGE:  cpu time      2.6066: real time      2.6068
    MIXING:  cpu time      0.0094: real time      0.0094
    --------------------------------------------
      LOOP:  cpu time    362.6913: real time    362.8193

 eigenvalue-minimisations  : 53144
 total energy-change (2. order) : 0.3400643E+02  (-0.7207536E+01)
 number of electron     769.0000001 magnetization 
 augmentation part       14.8197416 magnetization 

 Broyden mixing:
  rms(total) = 0.11057E+01    rms(broyden)= 0.11057E+01
  rms(prec ) = 0.24974E+01
  weight for this iteration     100.00

 eigenvalues of (default mixing * dielectric matrix)
  average eigenvalue GAMMA=   0.8109
  1.6950  0.4747  0.2629

 Free energy of the ion-electron system (eV)
  ---------------------------------------------------
  alpha Z        PSCENC =      3794.98599260
  Ewald energy   TEWEN  =    -67551.22900900
  -Hartree energ DENC   =    -13913.93953446
  -exchange      EXHF   =         0.00000000
  -V(xc)+E(xc)   XCENC  =      3162.87479683
  PAW double counting   =     94394.06389721   -93158.67303649
  entropy T*S    EENTRO =        -0.10322678
  eigenvalues    EBANDS =     -9726.76449310
  atomic energy  EATOM  =     82460.89627108
  Solvation  Ediel_sol  =         0.00000000
  ---------------------------------------------------
  free energy    TOTEN  =      -537.88834211 eV

  energy without entropy =     -537.78511533  energy(sigma->0) =     -537.83672872


--------------------------------------------------------------------------------------------------------




--------------------------------------- Iteration      1(   9)  ---------------------------------------


    POTLOK:  cpu time      0.0986: real time      0.1065
    SETDIJ:  cpu time      0.3407: real time      0.3409
     EDDAV:  cpu time    365.9560: real time    366.0786
       DOS:  cpu time      0.0031: real time      0.0031
    CHARGE:  cpu time      2.5996: real time      2.5996
    MIXING:  cpu time      0.0101: real time      0.0101
    --------------------------------------------
      LOOP:  cpu time    369.0080: real time    369.1388

 eigenvalue-minimisations  : 54272
 total energy-change (2. order) : 0.1763204E+01  (-0.3243958E+01)
 number of electron     769.0000000 magnetization 
 augmentation part       10.5628642 magnetization 

 Broyden mixing:
  rms(total) = 0.69473E+00    rms(broyden)= 0.69471E+00
  rms(prec ) = 0.91224E+00
  weight for this iteration     100.00

 eigenvalues of (default mixing * dielectric matrix)
  average eigenvalue GAMMA=   0.6676
  1.6985  0.5167  0.2617  0.1934

 Free energy of the ion-electron system (eV)
  ---------------------------------------------------
  alpha Z        PSCENC =      3794.98599260
  Ewald energy   TEWEN  =    -67551.22900900
  -Hartree energ DENC   =    -13903.60587727
  -exchange      EXHF   =         0.00000000
  -V(xc)+E(xc)   XCENC  =      3162.06923963
  PAW double counting   =     95416.73082135   -94174.74073764
  entropy T*S    EENTRO =        -0.10140866
  eigenvalues    EBANDS =     -9741.13042994
  atomic energy  EATOM  =     82460.89627108
  Solvation  Ediel_sol  =         0.00000000
  ---------------------------------------------------
  free energy    TOTEN  =      -536.12513785 eV

  energy without entropy =     -536.02372919  energy(sigma->0) =     -536.07443352


--------------------------------------------------------------------------------------------------------




--------------------------------------- Iteration      1(  10)  ---------------------------------------


    POTLOK:  cpu time      0.0991: real time      0.1032
    SETDIJ:  cpu time      0.3343: real time      0.3343
     EDDAV:  cpu time    364.8524: real time    364.9602
       DOS:  cpu time      0.0022: real time      0.0022
    CHARGE:  cpu time      2.6117: real time      2.6119
    MIXING:  cpu time      0.0104: real time      0.0104
    --------------------------------------------
      LOOP:  cpu time    367.9102: real time    368.0222

 eigenvalue-minimisations  : 54080
 total energy-change (2. order) :-0.1400124E+00  (-0.4468453E+00)
 number of electron     769.0000000 magnetization 
 augmentation part        9.1300627 magnetization 

 Broyden mixing:
  rms(total) = 0.63877E+00    rms(broyden)= 0.63877E+00
  rms(prec ) = 0.72195E+00
  weight for this iteration     100.00

 eigenvalues of (default mixing * dielectric matrix)
  average eigenvalue GAMMA=   0.6006
  1.6985  0.5039  0.2604  0.2700  0.2700

 Free energy of the ion-electron system (eV)
  ---------------------------------------------------
  alpha Z        PSCENC =      3794.98599260
  Ewald energy   TEWEN  =    -67551.22900900
  -Hartree energ DENC   =    -13914.06349284
  -exchange      EXHF   =         0.00000000
  -V(xc)+E(xc)   XCENC  =      3162.54584752
  PAW double counting   =     95776.41944601   -94522.61129051
  entropy T*S    EENTRO =        -0.10228618
  eigenvalues    EBANDS =     -9743.10662892
  atomic energy  EATOM  =     82460.89627108
  Solvation  Ediel_sol  =         0.00000000
  ---------------------------------------------------
  free energy    TOTEN  =      -536.26515024 eV

  energy without entropy =     -536.16286406  energy(sigma->0) =     -536.21400715


--------------------------------------------------------------------------------------------------------




--------------------------------------- Iteration      1(  11)  ---------------------------------------


    POTLOK:  cpu time      0.0988: real time      0.1035
    SETDIJ:  cpu time      0.3364: real time      0.3365
     EDDAV:  cpu time    377.1216: real time    377.2417
       DOS:  cpu time      0.0028: real time      0.0028
    CHARGE:  cpu time      2.6437: real time      2.6439
    MIXING:  cpu time      0.0098: real time      0.0098
    --------------------------------------------
      LOOP:  cpu time    380.2131: real time    380.3383

 eigenvalue-minimisations  : 56296
 total energy-change (2. order) :-0.3629517E-01  (-0.4079273E-01)
 number of electron     769.0000000 magnetization 
 augmentation part        8.8732697 magnetization 

 Broyden mixing:
  rms(total) = 0.59695E+00    rms(broyden)= 0.59695E+00
  rms(prec ) = 0.67611E+00
  weight for this iteration     100.00

 eigenvalues of (default mixing * dielectric matrix)
  average eigenvalue GAMMA=   0.8343
  1.6777  1.1240  1.1240  0.4988  0.3284  0.2530

 Free energy of the ion-electron system (eV)
  ---------------------------------------------------
  alpha Z        PSCENC =      3794.98599260
  Ewald energy   TEWEN  =    -67551.22900900
  -Hartree energ DENC   =    -13921.09910979
  -exchange      EXHF   =         0.00000000
  -V(xc)+E(xc)   XCENC  =      3162.89070159
  PAW double counting   =     95940.93254915   -94679.51261365
  entropy T*S    EENTRO =        -0.10205749
  eigenvalues    EBANDS =     -9744.06416990
  atomic energy  EATOM  =     82460.89627108
  Solvation  Ediel_sol  =         0.00000000
  ---------------------------------------------------
  free energy    TOTEN  =      -536.30144541 eV

  energy without entropy =     -536.19938792  energy(sigma->0) =     -536.25041667


--------------------------------------------------------------------------------------------------------




--------------------------------------- Iteration      1(  12)  ---------------------------------------


    POTLOK:  cpu time      0.0984: real time      0.1033
    SETDIJ:  cpu time      0.3359: real time      0.3360
     EDDAV:  cpu time    349.5560: real time    349.7012
       DOS:  cpu time      0.0032: real time      0.0032
    CHARGE:  cpu time      2.6129: real time      2.6131
    MIXING:  cpu time      0.0101: real time      0.0101
    --------------------------------------------
      LOOP:  cpu time    352.6166: real time    352.7669

 eigenvalue-minimisations  : 51360
 total energy-change (2. order) :-0.1259802E+00  (-0.3097006E-01)
 number of electron     769.0000000 magnetization 
 augmentation part        8.8422392 magnetization 

 Broyden mixing:
  rms(total) = 0.36363E+00    rms(broyden)= 0.36363E+00
  rms(prec ) = 0.56481E+00
  weight for this iteration     100.00

 eigenvalues of (default mixing * dielectric matrix)
  average eigenvalue GAMMA=   0.9564
  2.2871  1.7087  1.0893  0.5103  0.5103  0.2575  0.3317

 Free energy of the ion-electron system (eV)
  ---------------------------------------------------
  alpha Z        PSCENC =      3794.98599260
  Ewald energy   TEWEN  =    -67551.22900900
  -Hartree energ DENC   =    -13958.81338817
  -exchange      EXHF   =         0.00000000
  -V(xc)+E(xc)   XCENC  =      3164.72270782
  PAW double counting   =     96687.06494187   -95385.89221492
  entropy T*S    EENTRO =        -0.10163895
  eigenvalues    EBANDS =     -9748.06108795
  atomic energy  EATOM  =     82460.89627108
  Solvation  Ediel_sol  =         0.00000000
  ---------------------------------------------------
  free energy    TOTEN  =      -536.42742562 eV

  energy without entropy =     -536.32578667  energy(sigma->0) =     -536.37660615


--------------------------------------------------------------------------------------------------------




--------------------------------------- Iteration      1(  13)  ---------------------------------------


    POTLOK:  cpu time      0.0988: real time      0.1038
    SETDIJ:  cpu time      0.3425: real time      0.3425
     EDDAV:  cpu time    353.4740: real time    353.6267
       DOS:  cpu time      0.0030: real time      0.0030
    CHARGE:  cpu time      2.6199: real time      2.6201
    MIXING:  cpu time      0.0106: real time      0.0106
    --------------------------------------------
      LOOP:  cpu time    356.5487: real time    356.7067

 eigenvalue-minimisations  : 52088
 total energy-change (2. order) :-0.1560534E-01  (-0.6452859E-01)
 number of electron     769.0000000 magnetization 
 augmentation part        8.8777336 magnetization 

 Broyden mixing:
  rms(total) = 0.19212E+00    rms(broyden)= 0.19211E+00
  rms(prec ) = 0.49492E+00
  weight for this iteration     100.00

 eigenvalues of (default mixing * dielectric matrix)
  average eigenvalue GAMMA=   0.8984
  2.5670  1.6872  0.9714  0.5454  0.5454  0.3438  0.2591  0.2682

 Free energy of the ion-electron system (eV)
  ---------------------------------------------------
  alpha Z        PSCENC =      3794.98599260
  Ewald energy   TEWEN  =    -67551.22900900
  -Hartree energ DENC   =    -13999.67495526
  -exchange      EXHF   =         0.00000000
  -V(xc)+E(xc)   XCENC  =      3166.73553180
  PAW double counting   =     97606.01951731   -96260.15620375
  entropy T*S    EENTRO =        -0.10264516
  eigenvalues    EBANDS =     -9753.91753058
  atomic energy  EATOM  =     82460.89627108
  Solvation  Ediel_sol  =         0.00000000
  ---------------------------------------------------
  free energy    TOTEN  =      -536.44303096 eV

  energy without entropy =     -536.34038581  energy(sigma->0) =     -536.39170839


--------------------------------------------------------------------------------------------------------




--------------------------------------- Iteration      1(  14)  ---------------------------------------


    POTLOK:  cpu time      0.0992: real time      0.1047
    SETDIJ:  cpu time      0.3409: real time      0.3413
     EDDAV:  cpu time    347.5265: real time    347.8167
       DOS:  cpu time      0.0026: real time      0.0026
    CHARGE:  cpu time      2.6452: real time      2.6468
    MIXING:  cpu time      0.0127: real time      0.0127
    --------------------------------------------
      LOOP:  cpu time    350.6271: real time    350.9249

 eigenvalue-minimisations  : 51032
 total energy-change (2. order) : 0.8680848E-01  (-0.3395884E-01)
 number of electron     769.0000000 magnetization 
 augmentation part        8.9100307 magnetization 

 Broyden mixing:
  rms(total) = 0.14864E+00    rms(broyden)= 0.14864E+00
  rms(prec ) = 0.20358E+00
  weight for this iteration     100.00

 eigenvalues of (default mixing * dielectric matrix)
  average eigenvalue GAMMA=   0.8344
  2.6030  1.6785  0.8879  0.5662  0.5662  0.3531  0.3531  0.2578  0.2435

 Free energy of the ion-electron system (eV)
  ---------------------------------------------------
  alpha Z        PSCENC =      3794.98599260
  Ewald energy   TEWEN  =    -67551.22900900
  -Hartree energ DENC   =    -14010.89367603
  -exchange      EXHF   =         0.00000000
  -V(xc)+E(xc)   XCENC  =      3167.27725843
  PAW double counting   =     97946.99568073   -96588.35259684
  entropy T*S    EENTRO =        -0.10098914
  eigenvalues    EBANDS =     -9755.93515432
  atomic energy  EATOM  =     82460.89627108
  Solvation  Ediel_sol  =         0.00000000
  ---------------------------------------------------
  free energy    TOTEN  =      -536.35622248 eV

  energy without entropy =     -536.25523334  energy(sigma->0) =     -536.30572791


--------------------------------------------------------------------------------------------------------




--------------------------------------- Iteration      1(  15)  ---------------------------------------


    POTLOK:  cpu time      0.0989: real time      0.1038
    SETDIJ:  cpu time      0.3461: real time      0.3470
     EDDAV:  cpu time    344.1502: real time    344.5629
       DOS:  cpu time      0.0027: real time      0.0027
    CHARGE:  cpu time      2.6667: real time      2.6682
    MIXING:  cpu time      0.0117: real time      0.0117
    --------------------------------------------
      LOOP:  cpu time    347.2762: real time    347.6962

 eigenvalue-minimisations  : 50432
 total energy-change (2. order) : 0.9467182E-02  (-0.7159509E-02)
 number of electron     769.0000000 magnetization 
 augmentation part        8.9290410 magnetization 

 Broyden mixing:
  rms(total) = 0.12969E+00    rms(broyden)= 0.12969E+00
  rms(prec ) = 0.15257E+00
  weight for this iteration     100.00

 eigenvalues of (default mixing * dielectric matrix)
  average eigenvalue GAMMA=   0.7892
  2.6137  1.6778  0.8282  0.5517  0.5517  0.4194  0.4194  0.3178  0.2560  0.2560

 Free energy of the ion-electron system (eV)
  ---------------------------------------------------
  alpha Z        PSCENC =      3794.98599260
  Ewald energy   TEWEN  =    -67551.22900900
  -Hartree energ DENC   =    -14009.90947138
  -exchange      EXHF   =         0.00000000
  -V(xc)+E(xc)   XCENC  =      3167.23278816
  PAW double counting   =     97987.85933901   -96629.48123322
  entropy T*S    EENTRO =        -0.10179493
  eigenvalues    EBANDS =     -9756.59963763
  atomic energy  EATOM  =     82460.89627108
  Solvation  Ediel_sol  =         0.00000000
  ---------------------------------------------------
  free energy    TOTEN  =      -536.34675530 eV

  energy without entropy =     -536.24496037  energy(sigma->0) =     -536.29585784


--------------------------------------------------------------------------------------------------------




--------------------------------------- Iteration      1(  16)  ---------------------------------------


    POTLOK:  cpu time      0.1058: real time      0.1106
    SETDIJ:  cpu time      0.4114: real time      0.4117
     EDDAV:  cpu time    377.4706: real time    377.9419
       DOS:  cpu time      0.0031: real time      0.0031
    CHARGE:  cpu time      2.5919: real time      2.5936
    MIXING:  cpu time      0.0113: real time      0.0113
    --------------------------------------------
      LOOP:  cpu time    380.5941: real time    381.0722

 eigenvalue-minimisations  : 56440
 total energy-change (2. order) : 0.1070067E-02  (-0.1347475E-02)
 number of electron     769.0000000 magnetization 
 augmentation part        8.9547256 magnetization 

 Broyden mixing:
  rms(total) = 0.11638E+00    rms(broyden)= 0.11638E+00
  rms(prec ) = 0.13648E+00
  weight for this iteration     100.00

 eigenvalues of (default mixing * dielectric matrix)
  average eigenvalue GAMMA=   0.7974
  2.5971  1.6777  0.7543  0.7543  0.7590  0.5165  0.5165  0.3558  0.3346  0.2544
  0.2513

 Free energy of the ion-electron system (eV)
  ---------------------------------------------------
  alpha Z        PSCENC =      3794.98599260
  Ewald energy   TEWEN  =    -67551.22900900
  -Hartree energ DENC   =    -14008.72098817
  -exchange      EXHF   =         0.00000000
  -V(xc)+E(xc)   XCENC  =      3167.17608162
  PAW double counting   =     97984.92368590   -96627.49793576
  entropy T*S    EENTRO =        -0.10177726
  eigenvalues    EBANDS =     -9756.77800624
  atomic energy  EATOM  =     82460.89627108
  Solvation  Ediel_sol  =         0.00000000
  ---------------------------------------------------
  free energy    TOTEN  =      -536.34568523 eV

  energy without entropy =     -536.24390797  energy(sigma->0) =     -536.29479660


--------------------------------------------------------------------------------------------------------




--------------------------------------- Iteration      1(  17)  ---------------------------------------


    POTLOK:  cpu time      0.0988: real time      0.1045
    SETDIJ:  cpu time      0.3362: real time      0.3364
     EDDAV:  cpu time    359.3589: real time    359.6643
       DOS:  cpu time      0.0024: real time      0.0024
    CHARGE:  cpu time      2.6429: real time      2.6431
    MIXING:  cpu time      0.0105: real time      0.0105
    --------------------------------------------
      LOOP:  cpu time    362.4497: real time    362.7612

 eigenvalue-minimisations  : 53128
 total energy-change (2. order) : 0.3098855E-02  (-0.2684646E-03)
 number of electron     769.0000000 magnetization 
 augmentation part        8.9480480 magnetization 

 Broyden mixing:
  rms(total) = 0.89397E-01    rms(broyden)= 0.89397E-01
  rms(prec ) = 0.10529E+00
  weight for this iteration     100.00

 eigenvalues of (default mixing * dielectric matrix)
  average eigenvalue GAMMA=   0.8780
  2.5645  1.7156  1.3162  1.3162  0.8231  0.5825  0.5825  0.3987  0.3987  0.3311
  0.2552  0.2514

 Free energy of the ion-electron system (eV)
  ---------------------------------------------------
  alpha Z        PSCENC =      3794.98599260
  Ewald energy   TEWEN  =    -67551.22900900
  -Hartree energ DENC   =    -14005.93984322
  -exchange      EXHF   =         0.00000000
  -V(xc)+E(xc)   XCENC  =      3167.04388230
  PAW double counting   =     97972.51342108   -96617.33685090
  entropy T*S    EENTRO =        -0.10180977
  eigenvalues    EBANDS =     -9757.17464055
  atomic energy  EATOM  =     82460.89627108
  Solvation  Ediel_sol  =         0.00000000
  ---------------------------------------------------
  free energy    TOTEN  =      -536.34258638 eV

  energy without entropy =     -536.24077660  energy(sigma->0) =     -536.29168149


--------------------------------------------------------------------------------------------------------




--------------------------------------- Iteration      1(  18)  ---------------------------------------


    POTLOK:  cpu time      0.0990: real time      0.1053
    SETDIJ:  cpu time      0.3419: real time      0.3420
     EDDAV:  cpu time    365.8843: real time    366.0406
       DOS:  cpu time      0.0023: real time      0.0023
    CHARGE:  cpu time      2.6045: real time      2.6047
    MIXING:  cpu time      0.0097: real time      0.0097
    --------------------------------------------
      LOOP:  cpu time    368.9417: real time    369.1046

 eigenvalue-minimisations  : 54240
 total energy-change (2. order) : 0.3501522E-02  (-0.6307769E-03)
 number of electron     769.0000000 magnetization 
 augmentation part        8.9280736 magnetization 

 Broyden mixing:
  rms(total) = 0.42191E-01    rms(broyden)= 0.42191E-01
  rms(prec ) = 0.51577E-01
  weight for this iteration     100.00

 eigenvalues of (default mixing * dielectric matrix)
  average eigenvalue GAMMA=   0.8757
  2.5481  1.7449  1.4632  1.4632  0.8325  0.6076  0.6076  0.4592  0.4592  0.3588
  0.3334  0.2552  0.2513

 Free energy of the ion-electron system (eV)
  ---------------------------------------------------
  alpha Z        PSCENC =      3794.98599260
  Ewald energy   TEWEN  =    -67551.22900900
  -Hartree energ DENC   =    -14001.34301700
  -exchange      EXHF   =         0.00000000
  -V(xc)+E(xc)   XCENC  =      3166.82832508
  PAW double counting   =     97940.19882765   -96588.97542419
  entropy T*S    EENTRO =        -0.10190011
  eigenvalues    EBANDS =     -9757.59915096
  atomic energy  EATOM  =     82460.89627108
  Solvation  Ediel_sol  =         0.00000000
  ---------------------------------------------------
  free energy    TOTEN  =      -536.33908486 eV

  energy without entropy =     -536.23718474  energy(sigma->0) =     -536.28813480


--------------------------------------------------------------------------------------------------------




--------------------------------------- Iteration      1(  19)  ---------------------------------------


    POTLOK:  cpu time      0.0981: real time      0.1050
    SETDIJ:  cpu time      0.3374: real time      0.3374
     EDDAV:  cpu time    369.9614: real time    370.1875
       DOS:  cpu time      0.0034: real time      0.0034
    CHARGE:  cpu time      2.6324: real time      2.6327
    MIXING:  cpu time      0.0104: real time      0.0104
    --------------------------------------------
      LOOP:  cpu time    373.0431: real time    373.2764

 eigenvalue-minimisations  : 54952
 total energy-change (2. order) : 0.8401975E-03  (-0.4102977E-03)
 number of electron     769.0000000 magnetization 
 augmentation part        8.8962384 magnetization 

 Broyden mixing:
  rms(total) = 0.14582E-01    rms(broyden)= 0.14582E-01
  rms(prec ) = 0.17556E-01
  weight for this iteration     100.00

 eigenvalues of (default mixing * dielectric matrix)
  average eigenvalue GAMMA=   0.8794
  2.5397  1.7420  1.5560  1.5560  0.7617  0.7617  0.6644  0.6644  0.4924  0.4015
  0.2554  0.2511  0.3326  0.3326

 Free energy of the ion-electron system (eV)
  ---------------------------------------------------
  alpha Z        PSCENC =      3794.98599260
  Ewald energy   TEWEN  =    -67551.22900900
  -Hartree energ DENC   =    -13999.20233835
  -exchange      EXHF   =         0.00000000
  -V(xc)+E(xc)   XCENC  =      3166.73043459
  PAW double counting   =     97922.89238512   -96573.62949754
  entropy T*S    EENTRO =        -0.10192537
  eigenvalues    EBANDS =     -9757.68055779
  atomic energy  EATOM  =     82460.89627108
  Solvation  Ediel_sol  =         0.00000000
  ---------------------------------------------------
  free energy    TOTEN  =      -536.33824466 eV

  energy without entropy =     -536.23631928  energy(sigma->0) =     -536.28728197


--------------------------------------------------------------------------------------------------------




--------------------------------------- Iteration      1(  20)  ---------------------------------------


    POTLOK:  cpu time      0.0987: real time      0.1034
    SETDIJ:  cpu time      0.3425: real time      0.3430
     EDDAV:  cpu time    377.5100: real time    377.6663
       DOS:  cpu time      0.0023: real time      0.0023
    CHARGE:  cpu time      2.6311: real time      2.6315
    MIXING:  cpu time      0.0085: real time      0.0085
    --------------------------------------------
      LOOP:  cpu time    380.5931: real time    380.7550

 eigenvalue-minimisations  : 56304
 total energy-change (2. order) :-0.4202987E-04  (-0.1397926E-03)
 number of electron     769.0000000 magnetization 
 augmentation part        8.8788449 magnetization 

 Broyden mixing:
  rms(total) = 0.85461E-02    rms(broyden)= 0.85459E-02
  rms(prec ) = 0.10390E-01
  weight for this iteration     100.00

 eigenvalues of (default mixing * dielectric matrix)
  average eigenvalue GAMMA=   0.8729
  2.5140  1.7206  1.6027  1.6027  0.9283  0.9283  0.6536  0.6536  0.5298  0.2552
  0.2513  0.3886  0.3886  0.3225  0.3537

 Free energy of the ion-electron system (eV)
  ---------------------------------------------------
  alpha Z        PSCENC =      3794.98599260
  Ewald energy   TEWEN  =    -67551.22900900
  -Hartree energ DENC   =    -13998.84889839
  -exchange      EXHF   =         0.00000000
  -V(xc)+E(xc)   XCENC  =      3166.71518034
  PAW double counting   =     97916.56077203   -96567.71732963
  entropy T*S    EENTRO =        -0.10194184
  eigenvalues    EBANDS =     -9757.59932388
  atomic energy  EATOM  =     82460.89627108
  Solvation  Ediel_sol  =         0.00000000
  ---------------------------------------------------
  free energy    TOTEN  =      -536.33828669 eV

  energy without entropy =     -536.23634485  energy(sigma->0) =     -536.28731577


--------------------------------------------------------------------------------------------------------




--------------------------------------- Iteration      1(  21)  ---------------------------------------


    POTLOK:  cpu time      0.0992: real time      0.1036
    SETDIJ:  cpu time      0.3410: real time      0.3410
     EDDAV:  cpu time    378.2170: real time    378.3677
       DOS:  cpu time      0.0027: real time      0.0027
    CHARGE:  cpu time      2.6245: real time      2.6248
    MIXING:  cpu time      0.0112: real time      0.0112
    --------------------------------------------
      LOOP:  cpu time    381.2956: real time    381.4510

 eigenvalue-minimisations  : 56368
 total energy-change (2. order) : 0.1861513E-04  (-0.2086087E-04)
 number of electron     769.0000000 magnetization 
 augmentation part        8.8765031 magnetization 

 Broyden mixing:
  rms(total) = 0.51565E-02    rms(broyden)= 0.51565E-02
  rms(prec ) = 0.62464E-02
  weight for this iteration     100.00

 eigenvalues of (default mixing * dielectric matrix)
  average eigenvalue GAMMA=   0.9163
  2.5084  1.6014  1.6014  1.5330  1.4341  1.4341  0.8064  0.6235  0.6235  0.4870
  0.2553  0.2512  0.4337  0.3948  0.3377  0.3359

 Free energy of the ion-electron system (eV)
  ---------------------------------------------------
  alpha Z        PSCENC =      3794.98599260
  Ewald energy   TEWEN  =    -67551.22900900
  -Hartree energ DENC   =    -13998.64312995
  -exchange      EXHF   =         0.00000000
  -V(xc)+E(xc)   XCENC  =      3166.70620587
  PAW double counting   =     97911.10448497   -96562.56930530
  entropy T*S    EENTRO =        -0.10192953
  eigenvalues    EBANDS =     -9757.48784880
  atomic energy  EATOM  =     82460.89627108
  Solvation  Ediel_sol  =         0.00000000
  ---------------------------------------------------
  free energy    TOTEN  =      -536.33826807 eV

  energy without entropy =     -536.23633854  energy(sigma->0) =     -536.28730331


--------------------------------------------------------------------------------------------------------




--------------------------------------- Iteration      1(  22)  ---------------------------------------


    POTLOK:  cpu time      0.0986: real time      0.1035
    SETDIJ:  cpu time      0.3347: real time      0.3348
     EDDAV:  cpu time    372.9214: real time    373.0623
       DOS:  cpu time      0.0022: real time      0.0022
    CHARGE:  cpu time      2.6492: real time      2.6494
    MIXING:  cpu time      0.0116: real time      0.0116
    --------------------------------------------
      LOOP:  cpu time    376.0177: real time    376.1639

 eigenvalue-minimisations  : 55448
 total energy-change (2. order) : 0.4925852E-05  (-0.8968309E-05)
 number of electron     769.0000000 magnetization 
 augmentation part        8.8766372 magnetization 

 Broyden mixing:
  rms(total) = 0.28683E-02    rms(broyden)= 0.28682E-02
  rms(prec ) = 0.44685E-02
  weight for this iteration     100.00

 eigenvalues of (default mixing * dielectric matrix)
  average eigenvalue GAMMA=   0.9236
  2.5052  1.9387  1.9387  1.5046  1.5046  1.2246  0.8017  0.6344  0.6344  0.5819
  0.2553  0.2512  0.4356  0.4356  0.3330  0.3382  0.3838

 Free energy of the ion-electron system (eV)
  ---------------------------------------------------
  alpha Z        PSCENC =      3794.98599260
  Ewald energy   TEWEN  =    -67551.22900900
  -Hartree energ DENC   =    -13998.43487938
  -exchange      EXHF   =         0.00000000
  -V(xc)+E(xc)   XCENC  =      3166.69734567
  PAW double counting   =     97907.90181604   -96559.61054579
  entropy T*S    EENTRO =        -0.10195027
  eigenvalues    EBANDS =     -9757.44330409
  atomic energy  EATOM  =     82460.89627108
  Solvation  Ediel_sol  =         0.00000000
  ---------------------------------------------------
  free energy    TOTEN  =      -536.33826315 eV

  energy without entropy =     -536.23631288  energy(sigma->0) =     -536.28728801


--------------------------------------------------------------------------------------------------------




--------------------------------------- Iteration      1(  23)  ---------------------------------------


    POTLOK:  cpu time      0.0989: real time      0.1039
    SETDIJ:  cpu time      0.3419: real time      0.3419
     EDDAV:  cpu time    365.5895: real time    365.7534
       DOS:  cpu time      0.0023: real time      0.0023
    CHARGE:  cpu time      2.6252: real time      2.6262
    MIXING:  cpu time      0.0122: real time      0.0122
    --------------------------------------------
      LOOP:  cpu time    368.6700: real time    368.8400

 eigenvalue-minimisations  : 54144
 total energy-change (2. order) : 0.1229160E-04  (-0.4700990E-05)
 number of electron     769.0000000 magnetization 
 augmentation part        8.8772523 magnetization 

 Broyden mixing:
  rms(total) = 0.11993E-02    rms(broyden)= 0.11993E-02
  rms(prec ) = 0.17196E-02
  weight for this iteration     100.00

 eigenvalues of (default mixing * dielectric matrix)
  average eigenvalue GAMMA=   0.9194
  2.5126  1.9862  1.9862  1.4969  1.4969  1.2297  0.8709  0.8709  0.6211  0.6211
  0.4948  0.2553  0.2512  0.4221  0.4221  0.3322  0.3322  0.3463

 Free energy of the ion-electron system (eV)
  ---------------------------------------------------
  alpha Z        PSCENC =      3794.98599260
  Ewald energy   TEWEN  =    -67551.22900900
  -Hartree energ DENC   =    -13998.29937973
  -exchange      EXHF   =         0.00000000
  -V(xc)+E(xc)   XCENC  =      3166.69142705
  PAW double counting   =     97905.41378289   -96557.28804443
  entropy T*S    EENTRO =        -0.10193829
  eigenvalues    EBANDS =     -9757.40735303
  atomic energy  EATOM  =     82460.89627108
  Solvation  Ediel_sol  =         0.00000000
  ---------------------------------------------------
  free energy    TOTEN  =      -536.33825086 eV

  energy without entropy =     -536.23631256  energy(sigma->0) =     -536.28728171


--------------------------------------------------------------------------------------------------------




--------------------------------------- Iteration      1(  24)  ---------------------------------------


    POTLOK:  cpu time      0.0990: real time      0.1043
    SETDIJ:  cpu time      0.3412: real time      0.3413
     EDDAV:  cpu time    313.6171: real time    313.7570
       DOS:  cpu time      0.0023: real time      0.0023
    CHARGE:  cpu time      2.6140: real time      2.6141
    MIXING:  cpu time      0.0113: real time      0.0113
    --------------------------------------------
      LOOP:  cpu time    316.6849: real time    316.8303

 eigenvalue-minimisations  : 44856
 total energy-change (2. order) : 0.2433429E-05  (-0.1556870E-05)
 number of electron     769.0000000 magnetization 
 augmentation part        8.8774821 magnetization 

 Broyden mixing:
  rms(total) = 0.80629E-03    rms(broyden)= 0.80628E-03
  rms(prec ) = 0.10753E-02
  weight for this iteration     100.00

 eigenvalues of (default mixing * dielectric matrix)
  average eigenvalue GAMMA=   0.9096
  2.5231  2.0408  1.8509  1.4953  1.4953  1.3484  0.9659  0.9659  0.6252  0.6252
  0.5341  0.4822  0.2553  0.2512  0.4263  0.3759  0.3292  0.3465  0.3465

 Free energy of the ion-electron system (eV)
  ---------------------------------------------------
  alpha Z        PSCENC =      3794.98599260
  Ewald energy   TEWEN  =    -67551.22900900
  -Hartree energ DENC   =    -13998.23827602
  -exchange      EXHF   =         0.00000000
  -V(xc)+E(xc)   XCENC  =      3166.68878028
  PAW double counting   =     97904.37329033   -96556.30933449
  entropy T*S    EENTRO =        -0.10194092
  eigenvalues    EBANDS =     -9757.40402229
  atomic energy  EATOM  =     82460.89627108
  Solvation  Ediel_sol  =         0.00000000
  ---------------------------------------------------
  free energy    TOTEN  =      -536.33824842 eV

  energy without entropy =     -536.23630750  energy(sigma->0) =     -536.28727796


--------------------------------------------------------------------------------------------------------




--------------------------------------- Iteration      1(  25)  ---------------------------------------


    POTLOK:  cpu time      0.0989: real time      0.1047
    SETDIJ:  cpu time      0.3384: real time      0.3385
     EDDAV:  cpu time    258.5075: real time    258.6230
       DOS:  cpu time      0.0023: real time      0.0023
    CHARGE:  cpu time      2.6353: real time      2.6356
    MIXING:  cpu time      0.0118: real time      0.0118
    --------------------------------------------
      LOOP:  cpu time    261.5943: real time    261.7158

 eigenvalue-minimisations  : 35048
 total energy-change (2. order) : 0.1096661E-05  (-0.4200423E-06)
 number of electron     769.0000000 magnetization 
 augmentation part        8.8774624 magnetization 

 Broyden mixing:
  rms(total) = 0.59706E-03    rms(broyden)= 0.59705E-03
  rms(prec ) = 0.68332E-03
  weight for this iteration     100.00

 eigenvalues of (default mixing * dielectric matrix)
  average eigenvalue GAMMA=   0.9268
  2.4987  2.1818  1.7840  1.7840  1.5001  1.5001  1.0107  1.0107  0.7010  0.6411
  0.6411  0.5291  0.2512  0.2553  0.4160  0.4160  0.4086  0.3293  0.3390  0.3390

 Free energy of the ion-electron system (eV)
  ---------------------------------------------------
  alpha Z        PSCENC =      3794.98599260
  Ewald energy   TEWEN  =    -67551.22900900
  -Hartree energ DENC   =    -13998.21227240
  -exchange      EXHF   =         0.00000000
  -V(xc)+E(xc)   XCENC  =      3166.68765621
  PAW double counting   =     97903.85601040   -96555.81188051
  entropy T*S    EENTRO =        -0.10194087
  eigenvalues    EBANDS =     -9757.40907482
  atomic energy  EATOM  =     82460.89627108
  Solvation  Ediel_sol  =         0.00000000
  ---------------------------------------------------
  free energy    TOTEN  =      -536.33824733 eV

  energy without entropy =     -536.23630645  energy(sigma->0) =     -536.28727689


--------------------------------------------------------------------------------------------------------




--------------------------------------- Iteration      1(  26)  ---------------------------------------


    POTLOK:  cpu time      0.0984: real time      0.1028
    SETDIJ:  cpu time      0.3405: real time      0.3406
     EDDAV:  cpu time    198.9600: real time    199.0450
       DOS:  cpu time      0.0029: real time      0.0029
    --------------------------------------------
      LOOP:  cpu time    199.4017: real time    199.4913

 eigenvalue-minimisations  : 24488
 total energy-change (2. order) : 0.6731425E-06  (-0.1013273E-06)
 number of electron     769.0000000 magnetization 
 augmentation part        8.8774624 magnetization 

 Free energy of the ion-electron system (eV)
  ---------------------------------------------------
  alpha Z        PSCENC =      3794.98599260
  Ewald energy   TEWEN  =    -67551.22900900
  -Hartree energ DENC   =    -13998.19771898
  -exchange      EXHF   =         0.00000000
  -V(xc)+E(xc)   XCENC  =      3166.68696413
  PAW double counting   =     97903.26265437   -96555.22832617
  entropy T*S    EENTRO =        -0.10194006
  eigenvalues    EBANDS =     -9757.41313462
  atomic energy  EATOM  =     82460.89627108
  Solvation  Ediel_sol  =         0.00000000
  ---------------------------------------------------
  free energy    TOTEN  =      -536.33824665 eV

  energy without entropy =     -536.23630659  energy(sigma->0) =     -536.28727662


--------------------------------------------------------------------------------------------------------




 average (electrostatic) potential at core
  the test charge radii are     1.0638  1.0703
  (the norm of the test charge is              1.0000)
       1 -74.0636       2 -74.2450       3 -74.3164       4 -73.9420       5 -74.0377
       6 -74.2858       7 -73.7789       8 -73.9101       9 -74.0063      10 -74.1861
      11 -74.0676      12 -74.0154      13 -74.0586      14 -74.2886      15 -74.1946
      16 -74.0012      17 -74.0496      18 -74.1193      19 -74.1618      20 -74.1633
      21 -74.1592      22 -73.8879      23 -74.3612      24 -74.0134      25 -74.1848
      26 -73.8341      27 -74.2450      28 -74.0357      29 -73.7697      30 -73.9249
      31 -74.1046      32 -73.9845      33 -74.1032      34 -74.1140      35 -74.1568
      36 -74.2628      37 -74.0764      38 -73.9794      39 -74.1591      40 -74.0515
      41 -74.0897      42 -74.2476      43 -74.1346      44 -74.0536      45 -73.9220
      46 -73.9996      47 -74.1471      48 -73.8953      49 -74.0220      50 -74.0198
      51 -73.9314      52 -74.2085      53 -74.2238      54 -73.9185      55 -74.2917
      56 -74.1846      57 -74.0308      58 -74.1338      59 -74.1685      60 -74.0343
      61 -74.0427      62 -74.2509      63 -74.0267      64 -79.3933
 
 
 
 E-fermi :   9.2627     XC(G=0): -11.2223     alpha+bet :-16.5132

 val. band max:        9.2615940961   @ k =  -0.2500  -0.0000   0.2000
 cond. band min:       9.2628173571   @ k =   0.2500   0.5000   0.4000
 fundamental gap:      0.0012232611
 Fermi energy:         9.2627003628

 k-point     1 :       0.0000    0.0000    0.0000
  band No.  band energies     occupation 
      1     -45.5192      2.00000
      2     -39.4684      2.00000
      3     -39.4271      2.00000
      4     -39.4108      2.00000
      5     -39.3970      2.00000
      6     -39.3965      2.00000
      7     -39.3854      2.00000
      8     -39.3744      2.00000
      9     -39.3630      2.00000
     10     -39.3571      2.00000
     11     -39.3420      2.00000
     12     -39.3359      2.00000
     13     -39.3331      2.00000
     14     -39.3303      2.00000
     15     -39.3160      2.00000
     16     -39.3112      2.00000
     17     -39.3038      2.00000
     18     -39.2959      2.00000
     19     -39.2952      2.00000
     20     -39.2894      2.00000
     21     -39.2769      2.00000
     22     -39.2726      2.00000
     23     -39.2655      2.00000
     24     -39.2582      2.00000
     25     -39.2528      2.00000
     26     -39.2431      2.00000
     27     -39.2415      2.00000
     28     -39.2365      2.00000
     29     -39.2331      2.00000
     30     -39.2286      2.00000
     31     -39.2274      2.00000
     32     -39.2183      2.00000
     33     -39.2088      2.00000
     34     -39.2055      2.00000
     35     -39.1960      2.00000
     36     -39.1899      2.00000
     37     -39.1800      2.00000
     38     -39.1746      2.00000
     39     -39.1649      2.00000
     40     -39.1548      2.00000
     41     -39.1480      2.00000
     42     -39.1473      2.00000
     43     -39.1463      2.00000
     44     -39.1354      2.00000
     45     -39.1294      2.00000
     46     -39.1223      2.00000
     47     -39.1145      2.00000
     48     -39.1095      2.00000
     49     -39.1053      2.00000
     50     -39.1011      2.00000
     51     -39.0969      2.00000
     52     -39.0959      2.00000
     53     -39.0824      2.00000
     54     -39.0704      2.00000
     55     -39.0633      2.00000
     56     -39.0609      2.00000
     57     -39.0307      2.00000
     58     -39.0251      2.00000
     59     -39.0218      2.00000
     60     -39.0196      2.00000
     61     -39.0143      2.00000
     62     -38.9512      2.00000
     63     -38.9137      2.00000
     64     -38.9131      2.00000
     65     -21.6081      2.00000
     66     -21.5850      2.00000
     67     -21.5569      2.00000
     68     -18.0536      2.00000
     69     -18.0171      2.00000
     70     -17.9932      2.00000
     71     -17.9807      2.00000
     72     -17.9729      2.00000
     73     -17.9567      2.00000
     74     -17.9545      2.00000
     75     -17.9341      2.00000
     76     -17.9259      2.00000
     77     -17.9132      2.00000
     78     -17.9078      2.00000
     79     -17.8973      2.00000
     80     -17.8851      2.00000
     81     -17.8786      2.00000
     82     -17.8660      2.00000
     83     -17.8510      2.00000
     84     -17.8493      2.00000
     85     -17.8433      2.00000
     86     -17.8276      2.00000
     87     -17.8121      2.00000
     88     -17.8013      2.00000
     89     -17.7929      2.00000
     90     -17.7845      2.00000
     91     -17.7763      2.00000
     92     -17.7697      2.00000
     93     -17.7677      2.00000
     94     -17.7572      2.00000
     95     -17.7508      2.00000
     96     -17.7461      2.00000
     97     -17.7410      2.00000
     98     -17.7400      2.00000
     99     -17.7244      2.00000
    100     -17.7222      2.00000
    101     -17.7062      2.00000
    102     -17.7036      2.00000
    103     -17.7013      2.00000
    104     -17.6840      2.00000
    105     -17.6801      2.00000
    106     -17.6736      2.00000
    107     -17.6543      2.00000
    108     -17.6482      2.00000
    109     -17.6429      2.00000
    110     -17.6340      2.00000
    111     -17.6265      2.00000
    112     -17.6219      2.00000
    113     -17.6081      2.00000
    114     -17.6072      2.00000
    115     -17.6022      2.00000
    116     -17.5980      2.00000
    117     -17.5942      2.00000
    118     -17.5830      2.00000
    119     -17.5698      2.00000
    120     -17.5646      2.00000
    121     -17.5616      2.00000
    122     -17.5519      2.00000
    123     -17.5493      2.00000
    124     -17.5387      2.00000
    125     -17.5309      2.00000
    126     -17.5264      2.00000
    127     -17.5217      2.00000
    128     -17.5092      2.00000
    129     -17.5018      2.00000
    130     -17.4928      2.00000
    131     -17.4899      2.00000
    132     -17.4846      2.00000
    133     -17.4794      2.00000
    134     -17.4656      2.00000
    135     -17.4529      2.00000
    136     -17.4475      2.00000
    137     -17.4374      2.00000
    138     -17.4307      2.00000
    139     -17.4254      2.00000
    140     -17.4147      2.00000
    141     -17.4086      2.00000
    142     -17.4035      2.00000
    143     -17.3966      2.00000
    144     -17.3849      2.00000
    145     -17.3773      2.00000
    146     -17.3716      2.00000
    147     -17.3621      2.00000
    148     -17.3551      2.00000
    149     -17.3413      2.00000
    150     -17.3356      2.00000
    151     -17.3288      2.00000
    152     -17.3269      2.00000
    153     -17.3152      2.00000
    154     -17.3090      2.00000
    155     -17.3026      2.00000
    156     -17.2895      2.00000
    157     -17.2877      2.00000
    158     -17.2753      2.00000
    159     -17.2633      2.00000
    160     -17.2593      2.00000
    161     -17.2548      2.00000
    162     -17.2417      2.00000
    163     -17.2389      2.00000
    164     -17.2346      2.00000
    165     -17.2213      2.00000
    166     -17.2147      2.00000
    167     -17.2128      2.00000
    168     -17.2049      2.00000
    169     -17.1962      2.00000
    170     -17.1894      2.00000
    171     -17.1848      2.00000
    172     -17.1776      2.00000
    173     -17.1725      2.00000
    174     -17.1615      2.00000
    175     -17.1521      2.00000
    176     -17.1484      2.00000
    177     -17.1463      2.00000
    178     -17.1404      2.00000
    179     -17.1354      2.00000
    180     -17.1333      2.00000
    181     -17.1265      2.00000
    182     -17.1219      2.00000
    183     -17.1131      2.00000
    184     -17.1104      2.00000
    185     -17.1048      2.00000
    186     -17.0978      2.00000
    187     -17.0923      2.00000
    188     -17.0912      2.00000
    189     -17.0871      2.00000
    190     -17.0821      2.00000
    191     -17.0785      2.00000
    192     -17.0747      2.00000
    193     -17.0658      2.00000
    194     -17.0634      2.00000
    195     -17.0604      2.00000
    196     -17.0525      2.00000
    197     -17.0491      2.00000
    198     -17.0436      2.00000
    199     -17.0393      2.00000
    200     -17.0294      2.00000
    201     -17.0265      2.00000
    202     -17.0205      2.00000
    203     -17.0193      2.00000
    204     -17.0138      2.00000
    205     -17.0084      2.00000
    206     -17.0012      2.00000
    207     -16.9946      2.00000
    208     -16.9905      2.00000
    209     -16.9858      2.00000
    210     -16.9777      2.00000
    211     -16.9713      2.00000
    212     -16.9679      2.00000
    213     -16.9641      2.00000
    214     -16.9587      2.00000
    215     -16.9533      2.00000
    216     -16.9485      2.00000
    217     -16.9460      2.00000
    218     -16.9433      2.00000
    219     -16.9338      2.00000
    220     -16.9327      2.00000
    221     -16.9278      2.00000
    222     -16.9240      2.00000
    223     -16.9165      2.00000
    224     -16.9147      2.00000
    225     -16.9083      2.00000
    226     -16.9046      2.00000
    227     -16.8992      2.00000
    228     -16.8951      2.00000
    229     -16.8811      2.00000
    230     -16.8736      2.00000
    231     -16.8707      2.00000
    232     -16.8694      2.00000
    233     -16.8629      2.00000
    234     -16.8536      2.00000
    235     -16.8489      2.00000
    236     -16.8416      2.00000
    237     -16.8351      2.00000
    238     -16.8298      2.00000
    239     -16.8208      2.00000
    240     -16.8140      2.00000
    241     -16.8095      2.00000
    242     -16.8072      2.00000
    243     -16.7926      2.00000
    244     -16.7845      2.00000
    245     -16.7727      2.00000
    246     -16.7587      2.00000
    247     -16.7571      2.00000
    248     -16.7548      2.00000
    249     -16.7433      2.00000
    250     -16.7273      2.00000
    251     -16.7131      2.00000
    252     -16.7028      2.00000
    253     -16.6967      2.00000
    254     -16.6591      2.00000
    255     -16.6472      2.00000
    256     -16.6382      2.00000
    257       3.7184      2.00000
    258       4.9580      2.00000
    259       4.9788      2.00000
    260       5.2974      2.00000
    261       5.3007      2.00000
    262       5.4324      2.00000
    263       5.4584      2.00000
    264       6.1624      2.00000
    265       6.1722      2.00000
    266       6.1834      2.00000
    267       6.2223      2.00000
    268       6.2574      2.00000
    269       6.3114      2.00000
    270       6.3303      2.00000
    271       6.3588      2.00000
    272       6.3656      2.00000
    273       6.3772      2.00000
    274       6.3840      2.00000
    275       6.3971      2.00000
    276       6.4208      2.00000
    277       6.4311      2.00000
    278       6.4469      2.00000
    279       6.4735      2.00000
    280       6.4834      2.00000
    281       6.4875      2.00000
    282       6.5126      2.00000
    283       6.6397      2.00000
    284       6.6519      2.00000
    285       6.6816      2.00000
    286       6.7157      2.00000
    287       6.7405      2.00000
    288       6.7554      2.00000
    289       6.7636      2.00000
    290       6.7748      2.00000
    291       6.7877      2.00000
    292       6.8095      2.00000
    293       6.8282      2.00000
    294       6.8292      2.00000
    295       6.8563      2.00000
    296       6.8705      2.00000
    297       6.9303      2.00000
    298       6.9536      2.00000
    299       7.0141      2.00000
    300       7.0649      2.00000
    301       7.1015      2.00000
    302       7.1311      2.00000
    303       7.1465      2.00000
    304       7.1637      2.00000
    305       7.1947      2.00000
    306       7.2442      2.00000
    307       7.2529      2.00000
    308       7.2792      2.00000
    309       7.2878      2.00000
    310       7.3055      2.00000
    311       7.3205      2.00000
    312       7.3345      2.00000
    313       7.3565      2.00000
    314       7.3797      2.00000
    315       7.4029      2.00000
    316       7.4200      2.00000
    317       7.4352      2.00000
    318       7.4949      2.00000
    319       7.5573      2.00000
    320       7.5958      2.00000
    321       7.6414      2.00000
    322       7.6662      2.00000
    323       7.6899      2.00000
    324       7.7488      2.00000
    325       7.7665      2.00000
    326       7.8222      2.00000
    327       7.8441      2.00000
    328       7.8592      2.00000
    329       7.8724      2.00000
    330       7.8964      2.00000
    331       7.9369      2.00000
    332       7.9653      2.00000
    333       7.9949      2.00000
    334       8.0039      2.00000
    335       8.0558      2.00000
    336       8.0785      2.00000
    337       8.1232      2.00000
    338       8.1520      2.00000
    339       8.1815      2.00000
    340       8.2179      2.00000
    341       8.2266      2.00000
    342       8.2564      2.00000
    343       8.2784      2.00000
    344       8.3049      2.00000
    345       8.3169      2.00000
    346       8.3333      2.00000
    347       8.3567      2.00000
    348       8.3719      2.00000
    349       8.3761      2.00000
    350       8.4008      2.00000
    351       8.4180      2.00000
    352       8.4390      2.00000
    353       8.4558      2.00000
    354       8.4912      2.00000
    355       8.4982      2.00000
    356       8.5283      2.00000
    357       8.5545      2.00000
    358       8.5761      2.00000
    359       8.5904      2.00000
    360       8.5946      2.00000
    361       8.6169      2.00000
    362       8.6532      2.00000
    363       8.6866      2.00000
    364       8.6989      2.00000
    365       8.7269      2.00000
    366       8.7412      2.00000
    367       8.7540      2.00000
    368       8.7712      2.00000
    369       8.7917      2.00000
    370       8.8017      2.00000
    371       8.8210      2.00000
    372       8.8525      2.00000
    373       8.8750      2.00000
    374       8.8923      2.00000
    375       8.9514      2.00000
    376       8.9639      2.00000
    377       9.0162      2.00000
    378       9.0286      2.00000
    379       9.0925      2.00000
    380       9.1061      1.99999
    381       9.1425      1.99932
    382       9.1647      1.99441
    383       9.2216      1.75476
    384       9.2528      1.22131
    385       9.2823      0.57867
    386       9.2905      0.43208
    387       9.3109      0.17320
    388       9.3412      0.02643
    389       9.3531      0.01053
    390       9.3668      0.00323
    391       9.3771      0.00122
    392       9.4170      0.00001
    393       9.4248      0.00000
    394       9.4471      0.00000
    395       9.4801      0.00000
    396       9.4945      0.00000
    397       9.5128      0.00000
    398       9.5221      0.00000
    399       9.5390      0.00000
    400       9.5527      0.00000
    401       9.5840      0.00000
    402       9.5900      0.00000
    403       9.6142      0.00000
    404       9.6223      0.00000
    405       9.6437      0.00000
    406       9.6541      0.00000
    407       9.6908      0.00000
    408       9.7022      0.00000
    409       9.7342      0.00000
    410       9.7688      0.00000
    411       9.7840      0.00000
    412       9.8068      0.00000
    413       9.8162      0.00000
    414       9.8496      0.00000
    415       9.8712      0.00000
    416       9.9049      0.00000
    417       9.9098      0.00000
    418       9.9226      0.00000
    419       9.9385      0.00000
    420       9.9654      0.00000
    421      10.0129      0.00000
    422      10.0362      0.00000
    423      10.0685      0.00000
    424      10.0837      0.00000
    425      10.0858      0.00000
    426      10.1120      0.00000
    427      10.1344      0.00000
    428      10.1570      0.00000
    429      10.1620      0.00000
    430      10.1931      0.00000
    431      10.2021      0.00000
    432      10.2344      0.00000
    433      10.2496      0.00000
    434      10.2784      0.00000
    435      10.2981      0.00000
    436      10.3354      0.00000
    437      10.3460      0.00000
    438      10.3872      0.00000
    439      10.4031      0.00000
    440      10.4081      0.00000
    441      10.4689      0.00000
    442      10.5176      0.00000
    443      10.5404      0.00000
    444      10.5748      0.00000
    445      10.6009      0.00000
    446      10.6407      0.00000
    447      10.6469      0.00000
    448      10.6863      0.00000
    449      10.7058      0.00000
    450      10.7414      0.00000
    451      10.7710      0.00000
    452      10.7851      0.00000
    453      10.8166      0.00000
    454      10.8619      0.00000
    455      10.8784      0.00000
    456      10.9168      0.00000
    457      10.9314      0.00000
    458      10.9658      0.00000
    459      10.9918      0.00000
    460      11.0089      0.00000
    461      11.0247      0.00000
    462      11.0488      0.00000
    463      11.0621      0.00000
    464      11.1348      0.00000

 k-point     2 :       0.2500    0.0000    0.0000
  band No.  band energies     occupation 
      1     -45.5192      2.00000
      2     -39.4681      2.00000
      3     -39.4267      2.00000
      4     -39.4120      2.00000
      5     -39.3976      2.00000
      6     -39.3962      2.00000
      7     -39.3853      2.00000
      8     -39.3743      2.00000
      9     -39.3635      2.00000
     10     -39.3566      2.00000
     11     -39.3418      2.00000
     12     -39.3345      2.00000
     13     -39.3330      2.00000
     14     -39.3305      2.00000
     15     -39.3173      2.00000
     16     -39.3105      2.00000
     17     -39.3036      2.00000
     18     -39.2969      2.00000
     19     -39.2950      2.00000
     20     -39.2893      2.00000
     21     -39.2771      2.00000
     22     -39.2725      2.00000
     23     -39.2661      2.00000
     24     -39.2580      2.00000
     25     -39.2521      2.00000
     26     -39.2427      2.00000
     27     -39.2408      2.00000
     28     -39.2367      2.00000
     29     -39.2337      2.00000
     30     -39.2296      2.00000
     31     -39.2268      2.00000
     32     -39.2175      2.00000
     33     -39.2090      2.00000
     34     -39.2054      2.00000
     35     -39.1965      2.00000
     36     -39.1901      2.00000
     37     -39.1810      2.00000
     38     -39.1733      2.00000
     39     -39.1647      2.00000
     40     -39.1542      2.00000
     41     -39.1490      2.00000
     42     -39.1479      2.00000
     43     -39.1463      2.00000
     44     -39.1350      2.00000
     45     -39.1292      2.00000
     46     -39.1226      2.00000
     47     -39.1148      2.00000
     48     -39.1082      2.00000
     49     -39.1053      2.00000
     50     -39.1018      2.00000
     51     -39.0983      2.00000
     52     -39.0946      2.00000
     53     -39.0826      2.00000
     54     -39.0701      2.00000
     55     -39.0633      2.00000
     56     -39.0609      2.00000
     57     -39.0306      2.00000
     58     -39.0251      2.00000
     59     -39.0217      2.00000
     60     -39.0197      2.00000
     61     -39.0144      2.00000
     62     -38.9513      2.00000
     63     -38.9137      2.00000
     64     -38.9131      2.00000
     65     -21.6081      2.00000
     66     -21.5850      2.00000
     67     -21.5569      2.00000
     68     -18.0490      2.00000
     69     -18.0124      2.00000
     70     -17.9907      2.00000
     71     -17.9774      2.00000
     72     -17.9730      2.00000
     73     -17.9549      2.00000
     74     -17.9507      2.00000
     75     -17.9369      2.00000
     76     -17.9248      2.00000
     77     -17.9139      2.00000
     78     -17.9039      2.00000
     79     -17.8938      2.00000
     80     -17.8837      2.00000
     81     -17.8733      2.00000
     82     -17.8628      2.00000
     83     -17.8577      2.00000
     84     -17.8474      2.00000
     85     -17.8391      2.00000
     86     -17.8262      2.00000
     87     -17.8179      2.00000
     88     -17.8133      2.00000
     89     -17.8016      2.00000
     90     -17.7945      2.00000
     91     -17.7836      2.00000
     92     -17.7732      2.00000
     93     -17.7692      2.00000
     94     -17.7660      2.00000
     95     -17.7519      2.00000
     96     -17.7478      2.00000
     97     -17.7349      2.00000
     98     -17.7317      2.00000
     99     -17.7273      2.00000
    100     -17.7140      2.00000
    101     -17.7095      2.00000
    102     -17.6998      2.00000
    103     -17.6930      2.00000
    104     -17.6867      2.00000
    105     -17.6796      2.00000
    106     -17.6684      2.00000
    107     -17.6585      2.00000
    108     -17.6496      2.00000
    109     -17.6458      2.00000
    110     -17.6355      2.00000
    111     -17.6312      2.00000
    112     -17.6261      2.00000
    113     -17.6200      2.00000
    114     -17.6085      2.00000
    115     -17.6022      2.00000
    116     -17.5987      2.00000
    117     -17.5894      2.00000
    118     -17.5846      2.00000
    119     -17.5803      2.00000
    120     -17.5625      2.00000
    121     -17.5584      2.00000
    122     -17.5562      2.00000
    123     -17.5464      2.00000
    124     -17.5401      2.00000
    125     -17.5367      2.00000
    126     -17.5262      2.00000
    127     -17.5165      2.00000
    128     -17.5072      2.00000
    129     -17.5020      2.00000
    130     -17.4958      2.00000
    131     -17.4813      2.00000
    132     -17.4791      2.00000
    133     -17.4733      2.00000
    134     -17.4631      2.00000
    135     -17.4590      2.00000
    136     -17.4472      2.00000
    137     -17.4365      2.00000
    138     -17.4273      2.00000
    139     -17.4239      2.00000
    140     -17.4198      2.00000
    141     -17.4112      2.00000
    142     -17.4058      2.00000
    143     -17.3958      2.00000
    144     -17.3928      2.00000
    145     -17.3888      2.00000
    146     -17.3699      2.00000
    147     -17.3644      2.00000
    148     -17.3548      2.00000
    149     -17.3499      2.00000
    150     -17.3406      2.00000
    151     -17.3336      2.00000
    152     -17.3187      2.00000
    153     -17.3115      2.00000
    154     -17.2994      2.00000
    155     -17.2974      2.00000
    156     -17.2876      2.00000
    157     -17.2840      2.00000
    158     -17.2739      2.00000
    159     -17.2625      2.00000
    160     -17.2549      2.00000
    161     -17.2501      2.00000
    162     -17.2428      2.00000
    163     -17.2386      2.00000
    164     -17.2345      2.00000
    165     -17.2214      2.00000
    166     -17.2190      2.00000
    167     -17.2097      2.00000
    168     -17.1979      2.00000
    169     -17.1939      2.00000
    170     -17.1858      2.00000
    171     -17.1808      2.00000
    172     -17.1756      2.00000
    173     -17.1703      2.00000
    174     -17.1610      2.00000
    175     -17.1544      2.00000
    176     -17.1470      2.00000
    177     -17.1451      2.00000
    178     -17.1440      2.00000
    179     -17.1336      2.00000
    180     -17.1295      2.00000
    181     -17.1259      2.00000
    182     -17.1226      2.00000
    183     -17.1132      2.00000
    184     -17.1076      2.00000
    185     -17.1042      2.00000
    186     -17.1017      2.00000
    187     -17.0949      2.00000
    188     -17.0909      2.00000
    189     -17.0872      2.00000
    190     -17.0811      2.00000
    191     -17.0793      2.00000
    192     -17.0698      2.00000
    193     -17.0677      2.00000
    194     -17.0632      2.00000
    195     -17.0571      2.00000
    196     -17.0528      2.00000
    197     -17.0480      2.00000
    198     -17.0452      2.00000
    199     -17.0383      2.00000
    200     -17.0280      2.00000
    201     -17.0268      2.00000
    202     -17.0215      2.00000
    203     -17.0165      2.00000
    204     -17.0128      2.00000
    205     -17.0022      2.00000
    206     -16.9991      2.00000
    207     -16.9916      2.00000
    208     -16.9878      2.00000
    209     -16.9837      2.00000
    210     -16.9811      2.00000
    211     -16.9742      2.00000
    212     -16.9681      2.00000
    213     -16.9645      2.00000
    214     -16.9609      2.00000
    215     -16.9546      2.00000
    216     -16.9506      2.00000
    217     -16.9445      2.00000
    218     -16.9393      2.00000
    219     -16.9379      2.00000
    220     -16.9346      2.00000
    221     -16.9287      2.00000
    222     -16.9227      2.00000
    223     -16.9198      2.00000
    224     -16.9130      2.00000
    225     -16.9044      2.00000
    226     -16.9030      2.00000
    227     -16.8978      2.00000
    228     -16.8939      2.00000
    229     -16.8818      2.00000
    230     -16.8761      2.00000
    231     -16.8711      2.00000
    232     -16.8685      2.00000
    233     -16.8645      2.00000
    234     -16.8552      2.00000
    235     -16.8507      2.00000
    236     -16.8446      2.00000
    237     -16.8362      2.00000
    238     -16.8319      2.00000
    239     -16.8210      2.00000
    240     -16.8162      2.00000
    241     -16.8079      2.00000
    242     -16.8040      2.00000
    243     -16.7955      2.00000
    244     -16.7851      2.00000
    245     -16.7749      2.00000
    246     -16.7600      2.00000
    247     -16.7578      2.00000
    248     -16.7555      2.00000
    249     -16.7428      2.00000
    250     -16.7302      2.00000
    251     -16.7128      2.00000
    252     -16.7031      2.00000
    253     -16.6968      2.00000
    254     -16.6593      2.00000
    255     -16.6484      2.00000
    256     -16.6411      2.00000
    257       3.8050      2.00000
    258       4.4560      2.00000
    259       5.3666      2.00000
    260       5.3728      2.00000
    261       5.5065      2.00000
    262       5.5314      2.00000
    263       5.5634      2.00000
    264       5.8706      2.00000
    265       5.8861      2.00000
    266       6.0360      2.00000
    267       6.0494      2.00000
    268       6.3124      2.00000
    269       6.3573      2.00000
    270       6.3918      2.00000
    271       6.4106      2.00000
    272       6.4279      2.00000
    273       6.4405      2.00000
    274       6.4501      2.00000
    275       6.4663      2.00000
    276       6.4776      2.00000
    277       6.5066      2.00000
    278       6.5226      2.00000
    279       6.5289      2.00000
    280       6.5494      2.00000
    281       6.6064      2.00000
    282       6.6388      2.00000
    283       6.6513      2.00000
    284       6.6594      2.00000
    285       6.6829      2.00000
    286       6.6885      2.00000
    287       6.6982      2.00000
    288       6.7179      2.00000
    289       6.7438      2.00000
    290       6.7641      2.00000
    291       6.7767      2.00000
    292       6.7892      2.00000
    293       6.7955      2.00000
    294       6.8071      2.00000
    295       6.8388      2.00000
    296       6.8743      2.00000
    297       6.9046      2.00000
    298       6.9156      2.00000
    299       6.9476      2.00000
    300       6.9518      2.00000
    301       6.9656      2.00000
    302       6.9973      2.00000
    303       7.0382      2.00000
    304       7.0663      2.00000
    305       7.1064      2.00000
    306       7.1468      2.00000
    307       7.1752      2.00000
    308       7.2167      2.00000
    309       7.2366      2.00000
    310       7.3015      2.00000
    311       7.3368      2.00000
    312       7.3729      2.00000
    313       7.4038      2.00000
    314       7.4275      2.00000
    315       7.4546      2.00000
    316       7.4653      2.00000
    317       7.4978      2.00000
    318       7.5483      2.00000
    319       7.6007      2.00000
    320       7.6311      2.00000
    321       7.6586      2.00000
    322       7.6777      2.00000
    323       7.7156      2.00000
    324       7.7317      2.00000
    325       7.7656      2.00000
    326       7.8447      2.00000
    327       7.8802      2.00000
    328       7.9254      2.00000
    329       7.9393      2.00000
    330       7.9667      2.00000
    331       7.9921      2.00000
    332       7.9996      2.00000
    333       8.0151      2.00000
    334       8.0557      2.00000
    335       8.0777      2.00000
    336       8.0920      2.00000
    337       8.1048      2.00000
    338       8.1424      2.00000
    339       8.1608      2.00000
    340       8.1859      2.00000
    341       8.2000      2.00000
    342       8.2133      2.00000
    343       8.2402      2.00000
    344       8.2613      2.00000
    345       8.2857      2.00000
    346       8.2990      2.00000
    347       8.3221      2.00000
    348       8.3244      2.00000
    349       8.3525      2.00000
    350       8.3755      2.00000
    351       8.3882      2.00000
    352       8.4281      2.00000
    353       8.4306      2.00000
    354       8.4607      2.00000
    355       8.4751      2.00000
    356       8.5065      2.00000
    357       8.5297      2.00000
    358       8.5501      2.00000
    359       8.5559      2.00000
    360       8.5822      2.00000
    361       8.5980      2.00000
    362       8.6317      2.00000
    363       8.6376      2.00000
    364       8.6748      2.00000
    365       8.6935      2.00000
    366       8.7273      2.00000
    367       8.7398      2.00000
    368       8.7946      2.00000
    369       8.8036      2.00000
    370       8.8251      2.00000
    371       8.8501      2.00000
    372       8.9015      2.00000
    373       8.9349      2.00000
    374       8.9541      2.00000
    375       8.9808      2.00000
    376       9.0184      2.00000
    377       9.0601      2.00000
    378       9.1016      1.99999
    379       9.1182      1.99996
    380       9.1337      1.99974
    381       9.1607      1.99607
    382       9.1699      1.99133
    383       9.1991      1.92813
    384       9.2363      1.54498
    385       9.2739      0.75166
    386       9.2934      0.38568
    387       9.3127      0.15730
    388       9.3304      0.05560
    389       9.3450      0.01998
    390       9.3557      0.00852
    391       9.3720      0.00199
    392       9.4041      0.00006
    393       9.4256      0.00000
    394       9.4482      0.00000
    395       9.4564      0.00000
    396       9.4847      0.00000
    397       9.5094      0.00000
    398       9.5155      0.00000
    399       9.5392      0.00000
    400       9.5657      0.00000
    401       9.5837      0.00000
    402       9.6055      0.00000
    403       9.6416      0.00000
    404       9.6488      0.00000
    405       9.6694      0.00000
    406       9.6885      0.00000
    407       9.7071      0.00000
    408       9.7239      0.00000
    409       9.7568      0.00000
    410       9.7692      0.00000
    411       9.8018      0.00000
    412       9.8123      0.00000
    413       9.8560      0.00000
    414       9.8672      0.00000
    415       9.8920      0.00000
    416       9.9084      0.00000
    417       9.9371      0.00000
    418       9.9531      0.00000
    419       9.9898      0.00000
    420      10.0021      0.00000
    421      10.0391      0.00000
    422      10.0521      0.00000
    423      10.0640      0.00000
    424      10.0886      0.00000
    425      10.1093      0.00000
    426      10.1228      0.00000
    427      10.1498      0.00000
    428      10.1665      0.00000
    429      10.1759      0.00000
    430      10.2066      0.00000
    431      10.2183      0.00000
    432      10.2511      0.00000
    433      10.2579      0.00000
    434      10.2918      0.00000
    435      10.3014      0.00000
    436      10.3394      0.00000
    437      10.3806      0.00000
    438      10.4109      0.00000
    439      10.4204      0.00000
    440      10.4571      0.00000
    441      10.4650      0.00000
    442      10.4871      0.00000
    443      10.5002      0.00000
    444      10.5396      0.00000
    445      10.5721      0.00000
    446      10.6094      0.00000
    447      10.6424      0.00000
    448      10.6603      0.00000
    449      10.7006      0.00000
    450      10.7231      0.00000
    451      10.7345      0.00000
    452      10.7808      0.00000
    453      10.7963      0.00000
    454      10.8055      0.00000
    455      10.8550      0.00000
    456      10.8706      0.00000
    457      10.8951      0.00000
    458      10.9128      0.00000
    459      10.9247      0.00000
    460      10.9525      0.00000
    461      10.9674      0.00000
    462      11.0204      0.00000
    463      11.0334      0.00000
    464      11.0853      0.00000

 k-point     3 :       0.5000    0.0000    0.0000
  band No.  band energies     occupation 
      1     -45.5192      2.00000
      2     -39.4678      2.00000
      3     -39.4261      2.00000
      4     -39.4133      2.00000
      5     -39.3979      2.00000
      6     -39.3963      2.00000
      7     -39.3853      2.00000
      8     -39.3743      2.00000
      9     -39.3639      2.00000
     10     -39.3561      2.00000
     11     -39.3417      2.00000
     12     -39.3331      2.00000
     13     -39.3324      2.00000
     14     -39.3312      2.00000
     15     -39.3185      2.00000
     16     -39.3094      2.00000
     17     -39.3038      2.00000
     18     -39.2975      2.00000
     19     -39.2950      2.00000
     20     -39.2892      2.00000
     21     -39.2772      2.00000
     22     -39.2725      2.00000
     23     -39.2668      2.00000
     24     -39.2579      2.00000
     25     -39.2514      2.00000
     26     -39.2422      2.00000
     27     -39.2403      2.00000
     28     -39.2370      2.00000
     29     -39.2344      2.00000
     30     -39.2299      2.00000
     31     -39.2269      2.00000
     32     -39.2166      2.00000
     33     -39.2092      2.00000
     34     -39.2052      2.00000
     35     -39.1971      2.00000
     36     -39.1904      2.00000
     37     -39.1816      2.00000
     38     -39.1724      2.00000
     39     -39.1644      2.00000
     40     -39.1531      2.00000
     41     -39.1507      2.00000
     42     -39.1485      2.00000
     43     -39.1462      2.00000
     44     -39.1347      2.00000
     45     -39.1290      2.00000
     46     -39.1229      2.00000
     47     -39.1149      2.00000
     48     -39.1066      2.00000
     49     -39.1052      2.00000
     50     -39.1030      2.00000
     51     -39.0990      2.00000
     52     -39.0940      2.00000
     53     -39.0828      2.00000
     54     -39.0699      2.00000
     55     -39.0633      2.00000
     56     -39.0610      2.00000
     57     -39.0306      2.00000
     58     -39.0252      2.00000
     59     -39.0215      2.00000
     60     -39.0199      2.00000
     61     -39.0144      2.00000
     62     -38.9513      2.00000
     63     -38.9137      2.00000
     64     -38.9131      2.00000
     65     -21.6081      2.00000
     66     -21.5850      2.00000
     67     -21.5569      2.00000
     68     -18.0428      2.00000
     69     -18.0083      2.00000
     70     -17.9917      2.00000
     71     -17.9770      2.00000
     72     -17.9675      2.00000
     73     -17.9545      2.00000
     74     -17.9505      2.00000
     75     -17.9300      2.00000
     76     -17.9242      2.00000
     77     -17.9081      2.00000
     78     -17.9024      2.00000
     79     -17.8908      2.00000
     80     -17.8788      2.00000
     81     -17.8735      2.00000
     82     -17.8715      2.00000
     83     -17.8582      2.00000
     84     -17.8503      2.00000
     85     -17.8356      2.00000
     86     -17.8285      2.00000
     87     -17.8269      2.00000
     88     -17.8167      2.00000
     89     -17.8036      2.00000
     90     -17.7973      2.00000
     91     -17.7875      2.00000
     92     -17.7811      2.00000
     93     -17.7776      2.00000
     94     -17.7630      2.00000
     95     -17.7591      2.00000
     96     -17.7475      2.00000
     97     -17.7408      2.00000
     98     -17.7209      2.00000
     99     -17.7198      2.00000
    100     -17.7165      2.00000
    101     -17.7096      2.00000
    102     -17.7064      2.00000
    103     -17.6971      2.00000
    104     -17.6850      2.00000
    105     -17.6735      2.00000
    106     -17.6617      2.00000
    107     -17.6591      2.00000
    108     -17.6539      2.00000
    109     -17.6482      2.00000
    110     -17.6395      2.00000
    111     -17.6318      2.00000
    112     -17.6247      2.00000
    113     -17.6172      2.00000
    114     -17.6102      2.00000
    115     -17.6058      2.00000
    116     -17.5976      2.00000
    117     -17.5885      2.00000
    118     -17.5826      2.00000
    119     -17.5776      2.00000
    120     -17.5756      2.00000
    121     -17.5590      2.00000
    122     -17.5549      2.00000
    123     -17.5485      2.00000
    124     -17.5413      2.00000
    125     -17.5286      2.00000
    126     -17.5266      2.00000
    127     -17.5150      2.00000
    128     -17.5137      2.00000
    129     -17.5064      2.00000
    130     -17.4946      2.00000
    131     -17.4845      2.00000
    132     -17.4769      2.00000
    133     -17.4718      2.00000
    134     -17.4676      2.00000
    135     -17.4604      2.00000
    136     -17.4550      2.00000
    137     -17.4438      2.00000
    138     -17.4266      2.00000
    139     -17.4250      2.00000
    140     -17.4193      2.00000
    141     -17.4130      2.00000
    142     -17.4052      2.00000
    143     -17.3980      2.00000
    144     -17.3925      2.00000
    145     -17.3818      2.00000
    146     -17.3676      2.00000
    147     -17.3601      2.00000
    148     -17.3526      2.00000
    149     -17.3477      2.00000
    150     -17.3395      2.00000
    151     -17.3261      2.00000
    152     -17.3219      2.00000
    153     -17.3069      2.00000
    154     -17.3009      2.00000
    155     -17.2952      2.00000
    156     -17.2888      2.00000
    157     -17.2845      2.00000
    158     -17.2715      2.00000
    159     -17.2645      2.00000
    160     -17.2508      2.00000
    161     -17.2494      2.00000
    162     -17.2416      2.00000
    163     -17.2387      2.00000
    164     -17.2331      2.00000
    165     -17.2254      2.00000
    166     -17.2207      2.00000
    167     -17.2057      2.00000
    168     -17.1936      2.00000
    169     -17.1880      2.00000
    170     -17.1836      2.00000
    171     -17.1784      2.00000
    172     -17.1710      2.00000
    173     -17.1704      2.00000
    174     -17.1627      2.00000
    175     -17.1527      2.00000
    176     -17.1486      2.00000
    177     -17.1454      2.00000
    178     -17.1422      2.00000
    179     -17.1391      2.00000
    180     -17.1291      2.00000
    181     -17.1221      2.00000
    182     -17.1207      2.00000
    183     -17.1138      2.00000
    184     -17.1103      2.00000
    185     -17.1036      2.00000
    186     -17.1012      2.00000
    187     -17.0960      2.00000
    188     -17.0890      2.00000
    189     -17.0868      2.00000
    190     -17.0857      2.00000
    191     -17.0796      2.00000
    192     -17.0661      2.00000
    193     -17.0637      2.00000
    194     -17.0603      2.00000
    195     -17.0566      2.00000
    196     -17.0542      2.00000
    197     -17.0468      2.00000
    198     -17.0395      2.00000
    199     -17.0359      2.00000
    200     -17.0326      2.00000
    201     -17.0276      2.00000
    202     -17.0217      2.00000
    203     -17.0139      2.00000
    204     -17.0070      2.00000
    205     -17.0015      2.00000
    206     -16.9939      2.00000
    207     -16.9898      2.00000
    208     -16.9867      2.00000
    209     -16.9847      2.00000
    210     -16.9781      2.00000
    211     -16.9756      2.00000
    212     -16.9722      2.00000
    213     -16.9645      2.00000
    214     -16.9625      2.00000
    215     -16.9559      2.00000
    216     -16.9502      2.00000
    217     -16.9452      2.00000
    218     -16.9437      2.00000
    219     -16.9369      2.00000
    220     -16.9322      2.00000
    221     -16.9316      2.00000
    222     -16.9249      2.00000
    223     -16.9195      2.00000
    224     -16.9102      2.00000
    225     -16.9058      2.00000
    226     -16.9026      2.00000
    227     -16.8931      2.00000
    228     -16.8888      2.00000
    229     -16.8840      2.00000
    230     -16.8802      2.00000
    231     -16.8724      2.00000
    232     -16.8681      2.00000
    233     -16.8641      2.00000
    234     -16.8563      2.00000
    235     -16.8523      2.00000
    236     -16.8491      2.00000
    237     -16.8381      2.00000
    238     -16.8336      2.00000
    239     -16.8171      2.00000
    240     -16.8170      2.00000
    241     -16.8082      2.00000
    242     -16.8028      2.00000
    243     -16.7983      2.00000
    244     -16.7863      2.00000
    245     -16.7775      2.00000
    246     -16.7617      2.00000
    247     -16.7581      2.00000
    248     -16.7565      2.00000
    249     -16.7423      2.00000
    250     -16.7334      2.00000
    251     -16.7124      2.00000
    252     -16.7032      2.00000
    253     -16.6967      2.00000
    254     -16.6599      2.00000
    255     -16.6504      2.00000
    256     -16.6430      2.00000
    257       4.0490      2.00000
    258       4.0664      2.00000
    259       5.5364      2.00000
    260       5.5582      2.00000
    261       5.5970      2.00000
    262       5.6254      2.00000
    263       5.6983      2.00000
    264       5.7132      2.00000
    265       5.7532      2.00000
    266       5.7715      2.00000
    267       6.1576      2.00000
    268       6.2053      2.00000
    269       6.4062      2.00000
    270       6.4248      2.00000
    271       6.4725      2.00000
    272       6.4917      2.00000
    273       6.4979      2.00000
    274       6.5205      2.00000
    275       6.5270      2.00000
    276       6.5315      2.00000
    277       6.5536      2.00000
    278       6.5696      2.00000
    279       6.5734      2.00000
    280       6.5976      2.00000
    281       6.6138      2.00000
    282       6.6155      2.00000
    283       6.6242      2.00000
    284       6.6344      2.00000
    285       6.6522      2.00000
    286       6.6624      2.00000
    287       6.6648      2.00000
    288       6.6792      2.00000
    289       6.6865      2.00000
    290       6.6990      2.00000
    291       6.7092      2.00000
    292       6.7404      2.00000
    293       6.7458      2.00000
    294       6.7575      2.00000
    295       6.8442      2.00000
    296       6.8606      2.00000
    297       6.8731      2.00000
    298       6.8954      2.00000
    299       6.9024      2.00000
    300       6.9400      2.00000
    301       6.9644      2.00000
    302       6.9654      2.00000
    303       7.0127      2.00000
    304       7.0361      2.00000
    305       7.1019      2.00000
    306       7.1232      2.00000
    307       7.1516      2.00000
    308       7.1670      2.00000
    309       7.1892      2.00000
    310       7.2038      2.00000
    311       7.2390      2.00000
    312       7.3096      2.00000
    313       7.3960      2.00000
    314       7.4601      2.00000
    315       7.4963      2.00000
    316       7.5244      2.00000
    317       7.5449      2.00000
    318       7.5705      2.00000
    319       7.6077      2.00000
    320       7.6646      2.00000
    321       7.7065      2.00000
    322       7.7364      2.00000
    323       7.7844      2.00000
    324       7.8131      2.00000
    325       7.8169      2.00000
    326       7.8358      2.00000
    327       7.8672      2.00000
    328       7.9080      2.00000
    329       7.9451      2.00000
    330       7.9562      2.00000
    331       7.9829      2.00000
    332       8.0128      2.00000
    333       8.0370      2.00000
    334       8.0451      2.00000
    335       8.0700      2.00000
    336       8.0990      2.00000
    337       8.1058      2.00000
    338       8.1362      2.00000
    339       8.1568      2.00000
    340       8.1889      2.00000
    341       8.1924      2.00000
    342       8.2159      2.00000
    343       8.2475      2.00000
    344       8.2595      2.00000
    345       8.2780      2.00000
    346       8.2888      2.00000
    347       8.2961      2.00000
    348       8.3157      2.00000
    349       8.3501      2.00000
    350       8.3683      2.00000
    351       8.3915      2.00000
    352       8.3981      2.00000
    353       8.4067      2.00000
    354       8.4331      2.00000
    355       8.4384      2.00000
    356       8.4602      2.00000
    357       8.5086      2.00000
    358       8.5185      2.00000
    359       8.5301      2.00000
    360       8.5637      2.00000
    361       8.5952      2.00000
    362       8.6120      2.00000
    363       8.6252      2.00000
    364       8.6554      2.00000
    365       8.6768      2.00000
    366       8.7053      2.00000
    367       8.7421      2.00000
    368       8.7681      2.00000
    369       8.7888      2.00000
    370       8.8685      2.00000
    371       8.8767      2.00000
    372       8.9221      2.00000
    373       8.9701      2.00000
    374       8.9879      2.00000
    375       9.0170      2.00000
    376       9.0659      2.00000
    377       9.0870      2.00000
    378       9.1081      1.99999
    379       9.1322      1.99978
    380       9.1772      1.98442
    381       9.1813      1.97867
    382       9.1924      1.95333
    383       9.2167      1.80659
    384       9.2316      1.62093
    385       9.2670      0.90222
    386       9.2753      0.72242
    387       9.2941      0.37379
    388       9.3079      0.20151
    389       9.3386      0.03179
    390       9.3506      0.01289
    391       9.3633      0.00445
    392       9.3959      0.00016
    393       9.4176      0.00001
    394       9.4280      0.00000
    395       9.4551      0.00000
    396       9.4789      0.00000
    397       9.4947      0.00000
    398       9.5230      0.00000
    399       9.5524      0.00000
    400       9.5817      0.00000
    401       9.6112      0.00000
    402       9.6191      0.00000
    403       9.6508      0.00000
    404       9.6677      0.00000
    405       9.6876      0.00000
    406       9.7017      0.00000
    407       9.7260      0.00000
    408       9.7451      0.00000
    409       9.7468      0.00000
    410       9.7907      0.00000
    411       9.8197      0.00000
    412       9.8613      0.00000
    413       9.8802      0.00000
    414       9.9052      0.00000
    415       9.9182      0.00000
    416       9.9455      0.00000
    417       9.9596      0.00000
    418       9.9960      0.00000
    419      10.0153      0.00000
    420      10.0257      0.00000
    421      10.0335      0.00000
    422      10.0475      0.00000
    423      10.0940      0.00000
    424      10.1015      0.00000
    425      10.1138      0.00000
    426      10.1517      0.00000
    427      10.1671      0.00000
    428      10.1830      0.00000
    429      10.2092      0.00000
    430      10.2111      0.00000
    431      10.2261      0.00000
    432      10.2643      0.00000
    433      10.2894      0.00000
    434      10.3394      0.00000
    435      10.3507      0.00000
    436      10.3808      0.00000
    437      10.4041      0.00000
    438      10.4166      0.00000
    439      10.4336      0.00000
    440      10.4445      0.00000
    441      10.4626      0.00000
    442      10.4812      0.00000
    443      10.4966      0.00000
    444      10.5157      0.00000
    445      10.5354      0.00000
    446      10.5636      0.00000
    447      10.5971      0.00000
    448      10.6318      0.00000
    449      10.6524      0.00000
    450      10.6832      0.00000
    451      10.7042      0.00000
    452      10.7135      0.00000
    453      10.7643      0.00000
    454      10.7718      0.00000
    455      10.8005      0.00000
    456      10.8238      0.00000
    457      10.8466      0.00000
    458      10.8559      0.00000
    459      10.8678      0.00000
    460      10.8929      0.00000
    461      10.9144      0.00000
    462      10.9413      0.00000
    463      10.9653      0.00000
    464      11.0485      0.00000

 k-point     4 :      -0.0000    0.2500    0.0000
  band No.  band energies     occupation 
      1     -45.5192      2.00000
      2     -39.4677      2.00000
      3     -39.4271      2.00000
      4     -39.4099      2.00000
      5     -39.3991      2.00000
      6     -39.3964      2.00000
      7     -39.3855      2.00000
      8     -39.3745      2.00000
      9     -39.3626      2.00000
     10     -39.3573      2.00000
     11     -39.3419      2.00000
     12     -39.3361      2.00000
     13     -39.3339      2.00000
     14     -39.3291      2.00000
     15     -39.3203      2.00000
     16     -39.3086      2.00000
     17     -39.3034      2.00000
     18     -39.2952      2.00000
     19     -39.2945      2.00000
     20     -39.2899      2.00000
     21     -39.2764      2.00000
     22     -39.2730      2.00000
     23     -39.2657      2.00000
     24     -39.2603      2.00000
     25     -39.2496      2.00000
     26     -39.2432      2.00000
     27     -39.2407      2.00000
     28     -39.2364      2.00000
     29     -39.2335      2.00000
     30     -39.2301      2.00000
     31     -39.2268      2.00000
     32     -39.2188      2.00000
     33     -39.2081      2.00000
     34     -39.2050      2.00000
     35     -39.1956      2.00000
     36     -39.1898      2.00000
     37     -39.1800      2.00000
     38     -39.1741      2.00000
     39     -39.1655      2.00000
     40     -39.1548      2.00000
     41     -39.1481      2.00000
     42     -39.1476      2.00000
     43     -39.1467      2.00000
     44     -39.1350      2.00000
     45     -39.1299      2.00000
     46     -39.1222      2.00000
     47     -39.1144      2.00000
     48     -39.1101      2.00000
     49     -39.1050      2.00000
     50     -39.1010      2.00000
     51     -39.0968      2.00000
     52     -39.0958      2.00000
     53     -39.0826      2.00000
     54     -39.0704      2.00000
     55     -39.0635      2.00000
     56     -39.0610      2.00000
     57     -39.0304      2.00000
     58     -39.0251      2.00000
     59     -39.0218      2.00000
     60     -39.0195      2.00000
     61     -39.0145      2.00000
     62     -38.9512      2.00000
     63     -38.9137      2.00000
     64     -38.9131      2.00000
     65     -21.6081      2.00000
     66     -21.5850      2.00000
     67     -21.5569      2.00000
     68     -18.0476      2.00000
     69     -18.0076      2.00000
     70     -17.9836      2.00000
     71     -17.9735      2.00000
     72     -17.9694      2.00000
     73     -17.9501      2.00000
     74     -17.9413      2.00000
     75     -17.9346      2.00000
     76     -17.9211      2.00000
     77     -17.9119      2.00000
     78     -17.9054      2.00000
     79     -17.8982      2.00000
     80     -17.8872      2.00000
     81     -17.8814      2.00000
     82     -17.8656      2.00000
     83     -17.8601      2.00000
     84     -17.8457      2.00000
     85     -17.8369      2.00000
     86     -17.8299      2.00000
     87     -17.8217      2.00000
     88     -17.8108      2.00000
     89     -17.8016      2.00000
     90     -17.7953      2.00000
     91     -17.7881      2.00000
     92     -17.7846      2.00000
     93     -17.7733      2.00000
     94     -17.7667      2.00000
     95     -17.7575      2.00000
     96     -17.7466      2.00000
     97     -17.7395      2.00000
     98     -17.7357      2.00000
     99     -17.7251      2.00000
    100     -17.7224      2.00000
    101     -17.7149      2.00000
    102     -17.7006      2.00000
    103     -17.6956      2.00000
    104     -17.6891      2.00000
    105     -17.6849      2.00000
    106     -17.6768      2.00000
    107     -17.6699      2.00000
    108     -17.6509      2.00000
    109     -17.6459      2.00000
    110     -17.6383      2.00000
    111     -17.6318      2.00000
    112     -17.6210      2.00000
    113     -17.6170      2.00000
    114     -17.6082      2.00000
    115     -17.5991      2.00000
    116     -17.5947      2.00000
    117     -17.5873      2.00000
    118     -17.5821      2.00000
    119     -17.5761      2.00000
    120     -17.5686      2.00000
    121     -17.5638      2.00000
    122     -17.5529      2.00000
    123     -17.5468      2.00000
    124     -17.5424      2.00000
    125     -17.5282      2.00000
    126     -17.5218      2.00000
    127     -17.5189      2.00000
    128     -17.5125      2.00000
    129     -17.5003      2.00000
    130     -17.4960      2.00000
    131     -17.4859      2.00000
    132     -17.4725      2.00000
    133     -17.4678      2.00000
    134     -17.4580      2.00000
    135     -17.4504      2.00000
    136     -17.4436      2.00000
    137     -17.4376      2.00000
    138     -17.4260      2.00000
    139     -17.4219      2.00000
    140     -17.4107      2.00000
    141     -17.4017      2.00000
    142     -17.3971      2.00000
    143     -17.3932      2.00000
    144     -17.3847      2.00000
    145     -17.3784      2.00000
    146     -17.3693      2.00000
    147     -17.3607      2.00000
    148     -17.3511      2.00000
    149     -17.3502      2.00000
    150     -17.3353      2.00000
    151     -17.3278      2.00000
    152     -17.3191      2.00000
    153     -17.3114      2.00000
    154     -17.3064      2.00000
    155     -17.2989      2.00000
    156     -17.2931      2.00000
    157     -17.2874      2.00000
    158     -17.2813      2.00000
    159     -17.2717      2.00000
    160     -17.2627      2.00000
    161     -17.2481      2.00000
    162     -17.2445      2.00000
    163     -17.2396      2.00000
    164     -17.2324      2.00000
    165     -17.2214      2.00000
    166     -17.2132      2.00000
    167     -17.2068      2.00000
    168     -17.2028      2.00000
    169     -17.1949      2.00000
    170     -17.1897      2.00000
    171     -17.1797      2.00000
    172     -17.1784      2.00000
    173     -17.1707      2.00000
    174     -17.1624      2.00000
    175     -17.1577      2.00000
    176     -17.1521      2.00000
    177     -17.1501      2.00000
    178     -17.1384      2.00000
    179     -17.1328      2.00000
    180     -17.1285      2.00000
    181     -17.1239      2.00000
    182     -17.1174      2.00000
    183     -17.1101      2.00000
    184     -17.1065      2.00000
    185     -17.1021      2.00000
    186     -17.0984      2.00000
    187     -17.0933      2.00000
    188     -17.0895      2.00000
    189     -17.0885      2.00000
    190     -17.0821      2.00000
    191     -17.0773      2.00000
    192     -17.0724      2.00000
    193     -17.0690      2.00000
    194     -17.0656      2.00000
    195     -17.0565      2.00000
    196     -17.0540      2.00000
    197     -17.0483      2.00000
    198     -17.0419      2.00000
    199     -17.0389      2.00000
    200     -17.0319      2.00000
    201     -17.0266      2.00000
    202     -17.0231      2.00000
    203     -17.0154      2.00000
    204     -17.0106      2.00000
    205     -17.0034      2.00000
    206     -17.0006      2.00000
    207     -16.9989      2.00000
    208     -16.9924      2.00000
    209     -16.9857      2.00000
    210     -16.9799      2.00000
    211     -16.9730      2.00000
    212     -16.9713      2.00000
    213     -16.9673      2.00000
    214     -16.9615      2.00000
    215     -16.9577      2.00000
    216     -16.9522      2.00000
    217     -16.9468      2.00000
    218     -16.9405      2.00000
    219     -16.9370      2.00000
    220     -16.9307      2.00000
    221     -16.9269      2.00000
    222     -16.9244      2.00000
    223     -16.9186      2.00000
    224     -16.9135      2.00000
    225     -16.9063      2.00000
    226     -16.9041      2.00000
    227     -16.8986      2.00000
    228     -16.8900      2.00000
    229     -16.8827      2.00000
    230     -16.8780      2.00000
    231     -16.8706      2.00000
    232     -16.8658      2.00000
    233     -16.8601      2.00000
    234     -16.8555      2.00000
    235     -16.8522      2.00000
    236     -16.8398      2.00000
    237     -16.8359      2.00000
    238     -16.8293      2.00000
    239     -16.8231      2.00000
    240     -16.8139      2.00000
    241     -16.8083      2.00000
    242     -16.8063      2.00000
    243     -16.7972      2.00000
    244     -16.7846      2.00000
    245     -16.7743      2.00000
    246     -16.7607      2.00000
    247     -16.7572      2.00000
    248     -16.7548      2.00000
    249     -16.7427      2.00000
    250     -16.7276      2.00000
    251     -16.7097      2.00000
    252     -16.7041      2.00000
    253     -16.6962      2.00000
    254     -16.6643      2.00000
    255     -16.6495      2.00000
    256     -16.6393      2.00000
    257       3.8338      2.00000
    258       4.6788      2.00000
    259       5.0404      2.00000
    260       5.0606      2.00000
    261       5.5305      2.00000
    262       5.5573      2.00000
    263       5.6671      2.00000
    264       5.6859      2.00000
    265       5.9252      2.00000
    266       6.1721      2.00000
    267       6.1864      2.00000
    268       6.3293      2.00000
    269       6.3388      2.00000
    270       6.3704      2.00000
    271       6.3930      2.00000
    272       6.4018      2.00000
    273       6.4182      2.00000
    274       6.4276      2.00000
    275       6.4416      2.00000
    276       6.4756      2.00000
    277       6.4885      2.00000
    278       6.5094      2.00000
    279       6.5353      2.00000
    280       6.5480      2.00000
    281       6.5841      2.00000
    282       6.6205      2.00000
    283       6.6232      2.00000
    284       6.6450      2.00000
    285       6.6704      2.00000
    286       6.7267      2.00000
    287       6.7388      2.00000
    288       6.7591      2.00000
    289       6.7834      2.00000
    290       6.8355      2.00000
    291       6.8529      2.00000
    292       6.8739      2.00000
    293       6.9032      2.00000
    294       6.9166      2.00000
    295       6.9211      2.00000
    296       6.9476      2.00000
    297       6.9596      2.00000
    298       6.9801      2.00000
    299       6.9914      2.00000
    300       7.0281      2.00000
    301       7.0405      2.00000
    302       7.0549      2.00000
    303       7.0790      2.00000
    304       7.0982      2.00000
    305       7.1561      2.00000
    306       7.1753      2.00000
    307       7.1936      2.00000
    308       7.2070      2.00000
    309       7.2331      2.00000
    310       7.2471      2.00000
    311       7.2701      2.00000
    312       7.2858      2.00000
    313       7.3209      2.00000
    314       7.3309      2.00000
    315       7.3408      2.00000
    316       7.3761      2.00000
    317       7.3967      2.00000
    318       7.4519      2.00000
    319       7.4778      2.00000
    320       7.5074      2.00000
    321       7.5535      2.00000
    322       7.6014      2.00000
    323       7.6301      2.00000
    324       7.6595      2.00000
    325       7.7111      2.00000
    326       7.7474      2.00000
    327       7.7766      2.00000
    328       7.8467      2.00000
    329       7.8825      2.00000
    330       7.9171      2.00000
    331       7.9445      2.00000
    332       8.0005      2.00000
    333       8.0365      2.00000
    334       8.0570      2.00000
    335       8.0717      2.00000
    336       8.0920      2.00000
    337       8.1394      2.00000
    338       8.1551      2.00000
    339       8.1822      2.00000
    340       8.2121      2.00000
    341       8.2450      2.00000
    342       8.2546      2.00000
    343       8.2702      2.00000
    344       8.2873      2.00000
    345       8.3150      2.00000
    346       8.3486      2.00000
    347       8.3574      2.00000
    348       8.3764      2.00000
    349       8.3964      2.00000
    350       8.4331      2.00000
    351       8.4542      2.00000
    352       8.4736      2.00000
    353       8.4911      2.00000
    354       8.5091      2.00000
    355       8.5288      2.00000
    356       8.5479      2.00000
    357       8.5706      2.00000
    358       8.5901      2.00000
    359       8.6120      2.00000
    360       8.6305      2.00000
    361       8.6413      2.00000
    362       8.6833      2.00000
    363       8.6998      2.00000
    364       8.7182      2.00000
    365       8.7292      2.00000
    366       8.7447      2.00000
    367       8.7725      2.00000
    368       8.7799      2.00000
    369       8.8114      2.00000
    370       8.8351      2.00000
    371       8.8498      2.00000
    372       8.8736      2.00000
    373       8.9167      2.00000
    374       8.9590      2.00000
    375       8.9809      2.00000
    376       8.9973      2.00000
    377       9.0386      2.00000
    378       9.0643      2.00000
    379       9.1032      1.99999
    380       9.1562      1.99740
    381       9.1718      1.98982
    382       9.2066      1.88716
    383       9.2228      1.74050
    384       9.2366      1.53928
    385       9.2850      0.52837
    386       9.2910      0.42289
    387       9.3276      0.06649
    388       9.3346      0.04198
    389       9.3410      0.02682
    390       9.3721      0.00198
    391       9.4011      0.00009
    392       9.4131      0.00002
    393       9.4283      0.00000
    394       9.4553      0.00000
    395       9.4847      0.00000
    396       9.5148      0.00000
    397       9.5276      0.00000
    398       9.5466      0.00000
    399       9.5636      0.00000
    400       9.5657      0.00000
    401       9.6033      0.00000
    402       9.6218      0.00000
    403       9.6331      0.00000
    404       9.6489      0.00000
    405       9.6827      0.00000
    406       9.6978      0.00000
    407       9.7263      0.00000
    408       9.7431      0.00000
    409       9.7739      0.00000
    410       9.7945      0.00000
    411       9.8176      0.00000
    412       9.8437      0.00000
    413       9.8597      0.00000
    414       9.8752      0.00000
    415       9.8904      0.00000
    416       9.9188      0.00000
    417       9.9398      0.00000
    418       9.9634      0.00000
    419       9.9945      0.00000
    420      10.0179      0.00000
    421      10.0303      0.00000
    422      10.0487      0.00000
    423      10.0682      0.00000
    424      10.0788      0.00000
    425      10.1233      0.00000
    426      10.1281      0.00000
    427      10.1520      0.00000
    428      10.1785      0.00000
    429      10.1955      0.00000
    430      10.2192      0.00000
    431      10.2336      0.00000
    432      10.2569      0.00000
    433      10.2676      0.00000
    434      10.2976      0.00000
    435      10.3200      0.00000
    436      10.3346      0.00000
    437      10.3630      0.00000
    438      10.3908      0.00000
    439      10.4094      0.00000
    440      10.4468      0.00000
    441      10.4667      0.00000
    442      10.4938      0.00000
    443      10.5171      0.00000
    444      10.5489      0.00000
    445      10.5617      0.00000
    446      10.5771      0.00000
    447      10.6316      0.00000
    448      10.6494      0.00000
    449      10.6612      0.00000
    450      10.6982      0.00000
    451      10.7226      0.00000
    452      10.7460      0.00000
    453      10.7644      0.00000
    454      10.8017      0.00000
    455      10.8362      0.00000
    456      10.8455      0.00000
    457      10.8684      0.00000
    458      10.8916      0.00000
    459      10.9163      0.00000
    460      10.9323      0.00000
    461      10.9582      0.00000
    462      10.9804      0.00000
    463      11.0136      0.00000
    464      11.0626      0.00000

 k-point     5 :       0.2500    0.2500    0.0000
  band No.  band energies     occupation 
      1     -45.5192      2.00000
      2     -39.4674      2.00000
      3     -39.4267      2.00000
      4     -39.4103      2.00000
      5     -39.3994      2.00000
      6     -39.3970      2.00000
      7     -39.3854      2.00000
      8     -39.3747      2.00000
      9     -39.3625      2.00000
     10     -39.3578      2.00000
     11     -39.3416      2.00000
     12     -39.3346      2.00000
     13     -39.3334      2.00000
     14     -39.3290      2.00000
     15     -39.3215      2.00000
     16     -39.3085      2.00000
     17     -39.3032      2.00000
     18     -39.2957      2.00000
     19     -39.2944      2.00000
     20     -39.2899      2.00000
     21     -39.2756      2.00000
     22     -39.2736      2.00000
     23     -39.2665      2.00000
     24     -39.2599      2.00000
     25     -39.2491      2.00000
     26     -39.2425      2.00000
     27     -39.2406      2.00000
     28     -39.2376      2.00000
     29     -39.2337      2.00000
     30     -39.2307      2.00000
     31     -39.2265      2.00000
     32     -39.2172      2.00000
     33     -39.2086      2.00000
     34     -39.2047      2.00000
     35     -39.1963      2.00000
     36     -39.1901      2.00000
     37     -39.1809      2.00000
     38     -39.1731      2.00000
     39     -39.1651      2.00000
     40     -39.1544      2.00000
     41     -39.1490      2.00000
     42     -39.1482      2.00000
     43     -39.1469      2.00000
     44     -39.1348      2.00000
     45     -39.1296      2.00000
     46     -39.1224      2.00000
     47     -39.1148      2.00000
     48     -39.1088      2.00000
     49     -39.1053      2.00000
     50     -39.1013      2.00000
     51     -39.0977      2.00000
     52     -39.0949      2.00000
     53     -39.0828      2.00000
     54     -39.0702      2.00000
     55     -39.0635      2.00000
     56     -39.0609      2.00000
     57     -39.0305      2.00000
     58     -39.0251      2.00000
     59     -39.0216      2.00000
     60     -39.0196      2.00000
     61     -39.0145      2.00000
     62     -38.9512      2.00000
     63     -38.9137      2.00000
     64     -38.9131      2.00000
     65     -21.6081      2.00000
     66     -21.5850      2.00000
     67     -21.5569      2.00000
     68     -18.0434      2.00000
     69     -18.0053      2.00000
     70     -17.9813      2.00000
     71     -17.9723      2.00000
     72     -17.9696      2.00000
     73     -17.9482      2.00000
     74     -17.9373      2.00000
     75     -17.9323      2.00000
     76     -17.9180      2.00000
     77     -17.9103      2.00000
     78     -17.9064      2.00000
     79     -17.8931      2.00000
     80     -17.8868      2.00000
     81     -17.8755      2.00000
     82     -17.8681      2.00000
     83     -17.8577      2.00000
     84     -17.8473      2.00000
     85     -17.8418      2.00000
     86     -17.8331      2.00000
     87     -17.8226      2.00000
     88     -17.8142      2.00000
     89     -17.8036      2.00000
     90     -17.7980      2.00000
     91     -17.7914      2.00000
     92     -17.7815      2.00000
     93     -17.7748      2.00000
     94     -17.7631      2.00000
     95     -17.7585      2.00000
     96     -17.7500      2.00000
     97     -17.7432      2.00000
     98     -17.7323      2.00000
     99     -17.7305      2.00000
    100     -17.7206      2.00000
    101     -17.7113      2.00000
    102     -17.7028      2.00000
    103     -17.6981      2.00000
    104     -17.6930      2.00000
    105     -17.6903      2.00000
    106     -17.6772      2.00000
    107     -17.6725      2.00000
    108     -17.6588      2.00000
    109     -17.6473      2.00000
    110     -17.6342      2.00000
    111     -17.6273      2.00000
    112     -17.6222      2.00000
    113     -17.6175      2.00000
    114     -17.6127      2.00000
    115     -17.6040      2.00000
    116     -17.5960      2.00000
    117     -17.5895      2.00000
    118     -17.5814      2.00000
    119     -17.5740      2.00000
    120     -17.5664      2.00000
    121     -17.5631      2.00000
    122     -17.5569      2.00000
    123     -17.5480      2.00000
    124     -17.5411      2.00000
    125     -17.5319      2.00000
    126     -17.5278      2.00000
    127     -17.5157      2.00000
    128     -17.5098      2.00000
    129     -17.5008      2.00000
    130     -17.4912      2.00000
    131     -17.4866      2.00000
    132     -17.4788      2.00000
    133     -17.4703      2.00000
    134     -17.4662      2.00000
    135     -17.4590      2.00000
    136     -17.4509      2.00000
    137     -17.4408      2.00000
    138     -17.4330      2.00000
    139     -17.4194      2.00000
    140     -17.4139      2.00000
    141     -17.4075      2.00000
    142     -17.3989      2.00000
    143     -17.3938      2.00000
    144     -17.3793      2.00000
    145     -17.3772      2.00000
    146     -17.3695      2.00000
    147     -17.3518      2.00000
    148     -17.3460      2.00000
    149     -17.3389      2.00000
    150     -17.3327      2.00000
    151     -17.3216      2.00000
    152     -17.3180      2.00000
    153     -17.3131      2.00000
    154     -17.3040      2.00000
    155     -17.2995      2.00000
    156     -17.2855      2.00000
    157     -17.2828      2.00000
    158     -17.2780      2.00000
    159     -17.2663      2.00000
    160     -17.2577      2.00000
    161     -17.2514      2.00000
    162     -17.2391      2.00000
    163     -17.2326      2.00000
    164     -17.2274      2.00000
    165     -17.2205      2.00000
    166     -17.2135      2.00000
    167     -17.2081      2.00000
    168     -17.2006      2.00000
    169     -17.1945      2.00000
    170     -17.1890      2.00000
    171     -17.1855      2.00000
    172     -17.1784      2.00000
    173     -17.1715      2.00000
    174     -17.1618      2.00000
    175     -17.1559      2.00000
    176     -17.1543      2.00000
    177     -17.1474      2.00000
    178     -17.1406      2.00000
    179     -17.1337      2.00000
    180     -17.1279      2.00000
    181     -17.1215      2.00000
    182     -17.1181      2.00000
    183     -17.1132      2.00000
    184     -17.1051      2.00000
    185     -17.1020      2.00000
    186     -17.1003      2.00000
    187     -17.0940      2.00000
    188     -17.0889      2.00000
    189     -17.0845      2.00000
    190     -17.0806      2.00000
    191     -17.0740      2.00000
    192     -17.0699      2.00000
    193     -17.0652      2.00000
    194     -17.0603      2.00000
    195     -17.0559      2.00000
    196     -17.0523      2.00000
    197     -17.0496      2.00000
    198     -17.0436      2.00000
    199     -17.0377      2.00000
    200     -17.0303      2.00000
    201     -17.0274      2.00000
    202     -17.0229      2.00000
    203     -17.0169      2.00000
    204     -17.0136      2.00000
    205     -17.0051      2.00000
    206     -17.0008      2.00000
    207     -16.9950      2.00000
    208     -16.9904      2.00000
    209     -16.9863      2.00000
    210     -16.9807      2.00000
    211     -16.9723      2.00000
    212     -16.9690      2.00000
    213     -16.9652      2.00000
    214     -16.9626      2.00000
    215     -16.9577      2.00000
    216     -16.9529      2.00000
    217     -16.9483      2.00000
    218     -16.9432      2.00000
    219     -16.9381      2.00000
    220     -16.9332      2.00000
    221     -16.9288      2.00000
    222     -16.9226      2.00000
    223     -16.9187      2.00000
    224     -16.9135      2.00000
    225     -16.9071      2.00000
    226     -16.9015      2.00000
    227     -16.8966      2.00000
    228     -16.8906      2.00000
    229     -16.8845      2.00000
    230     -16.8790      2.00000
    231     -16.8709      2.00000
    232     -16.8660      2.00000
    233     -16.8596      2.00000
    234     -16.8558      2.00000
    235     -16.8524      2.00000
    236     -16.8442      2.00000
    237     -16.8368      2.00000
    238     -16.8313      2.00000
    239     -16.8243      2.00000
    240     -16.8155      2.00000
    241     -16.8108      2.00000
    242     -16.8023      2.00000
    243     -16.7999      2.00000
    244     -16.7848      2.00000
    245     -16.7748      2.00000
    246     -16.7610      2.00000
    247     -16.7597      2.00000
    248     -16.7530      2.00000
    249     -16.7455      2.00000
    250     -16.7287      2.00000
    251     -16.7102      2.00000
    252     -16.7044      2.00000
    253     -16.6957      2.00000
    254     -16.6641      2.00000
    255     -16.6501      2.00000
    256     -16.6417      2.00000
    257       3.9190      2.00000
    258       4.5516      2.00000
    259       4.7572      2.00000
    260       5.2989      2.00000
    261       5.5977      2.00000
    262       5.6195      2.00000
    263       5.6324      2.00000
    264       5.9939      2.00000
    265       6.0391      2.00000
    266       6.0960      2.00000
    267       6.1116      2.00000
    268       6.2351      2.00000
    269       6.2445      2.00000
    270       6.3737      2.00000
    271       6.3926      2.00000
    272       6.4237      2.00000
    273       6.4641      2.00000
    274       6.4792      2.00000
    275       6.4911      2.00000
    276       6.5011      2.00000
    277       6.5222      2.00000
    278       6.5434      2.00000
    279       6.5711      2.00000
    280       6.5903      2.00000
    281       6.6092      2.00000
    282       6.6156      2.00000
    283       6.6283      2.00000
    284       6.6396      2.00000
    285       6.6535      2.00000
    286       6.6710      2.00000
    287       6.7182      2.00000
    288       6.7392      2.00000
    289       6.7815      2.00000
    290       6.8071      2.00000
    291       6.8254      2.00000
    292       6.8334      2.00000
    293       6.8695      2.00000
    294       6.8984      2.00000
    295       6.9080      2.00000
    296       6.9185      2.00000
    297       6.9403      2.00000
    298       6.9480      2.00000
    299       6.9728      2.00000
    300       6.9933      2.00000
    301       7.0020      2.00000
    302       7.0097      2.00000
    303       7.0354      2.00000
    304       7.0532      2.00000
    305       7.0776      2.00000
    306       7.1056      2.00000
    307       7.1271      2.00000
    308       7.1675      2.00000
    309       7.1930      2.00000
    310       7.2585      2.00000
    311       7.2707      2.00000
    312       7.2929      2.00000
    313       7.3556      2.00000
    314       7.3684      2.00000
    315       7.4009      2.00000
    316       7.4327      2.00000
    317       7.4483      2.00000
    318       7.4644      2.00000
    319       7.4790      2.00000
    320       7.5031      2.00000
    321       7.5270      2.00000
    322       7.5775      2.00000
    323       7.6004      2.00000
    324       7.6288      2.00000
    325       7.6621      2.00000
    326       7.7011      2.00000
    327       7.7656      2.00000
    328       7.8075      2.00000
    329       7.8727      2.00000
    330       7.9006      2.00000
    331       7.9627      2.00000
    332       8.0060      2.00000
    333       8.0216      2.00000
    334       8.0413      2.00000
    335       8.0668      2.00000
    336       8.0927      2.00000
    337       8.1429      2.00000
    338       8.1812      2.00000
    339       8.1929      2.00000
    340       8.2395      2.00000
    341       8.2528      2.00000
    342       8.2627      2.00000
    343       8.2936      2.00000
    344       8.3155      2.00000
    345       8.3348      2.00000
    346       8.3555      2.00000
    347       8.3684      2.00000
    348       8.3837      2.00000
    349       8.4214      2.00000
    350       8.4424      2.00000
    351       8.4497      2.00000
    352       8.4675      2.00000
    353       8.4832      2.00000
    354       8.5144      2.00000
    355       8.5269      2.00000
    356       8.5397      2.00000
    357       8.5522      2.00000
    358       8.5951      2.00000
    359       8.6101      2.00000
    360       8.6218      2.00000
    361       8.6337      2.00000
    362       8.6645      2.00000
    363       8.6818      2.00000
    364       8.6981      2.00000
    365       8.7212      2.00000
    366       8.7435      2.00000
    367       8.7871      2.00000
    368       8.7973      2.00000
    369       8.8406      2.00000
    370       8.8636      2.00000
    371       8.8861      2.00000
    372       8.9324      2.00000
    373       8.9590      2.00000
    374       8.9793      2.00000
    375       9.0026      2.00000
    376       9.0304      2.00000
    377       9.0496      2.00000
    378       9.0970      2.00000
    379       9.1301      1.99982
    380       9.1551      1.99766
    381       9.1789      1.98217
    382       9.1994      1.92658
    383       9.2299      1.64579
    384       9.2460      1.36368
    385       9.2716      0.80024
    386       9.3023      0.26290
    387       9.3278      0.06555
    388       9.3425      0.02404
    389       9.3676      0.00302
    390       9.3918      0.00026
    391       9.3978      0.00013
    392       9.4154      0.00002
    393       9.4370      0.00000
    394       9.4479      0.00000
    395       9.4812      0.00000
    396       9.5029      0.00000
    397       9.5225      0.00000
    398       9.5321      0.00000
    399       9.5695      0.00000
    400       9.5950      0.00000
    401       9.6096      0.00000
    402       9.6405      0.00000
    403       9.6467      0.00000
    404       9.6699      0.00000
    405       9.6929      0.00000
    406       9.7064      0.00000
    407       9.7501      0.00000
    408       9.7618      0.00000
    409       9.7753      0.00000
    410       9.7992      0.00000
    411       9.8186      0.00000
    412       9.8305      0.00000
    413       9.8601      0.00000
    414       9.8824      0.00000
    415       9.8971      0.00000
    416       9.9199      0.00000
    417       9.9406      0.00000
    418       9.9651      0.00000
    419       9.9976      0.00000
    420      10.0240      0.00000
    421      10.0393      0.00000
    422      10.0592      0.00000
    423      10.0680      0.00000
    424      10.0928      0.00000
    425      10.1237      0.00000
    426      10.1363      0.00000
    427      10.1581      0.00000
    428      10.1828      0.00000
    429      10.1968      0.00000
    430      10.2270      0.00000
    431      10.2434      0.00000
    432      10.2566      0.00000
    433      10.2791      0.00000
    434      10.2842      0.00000
    435      10.3214      0.00000
    436      10.3415      0.00000
    437      10.3588      0.00000
    438      10.3884      0.00000
    439      10.4090      0.00000
    440      10.4168      0.00000
    441      10.4580      0.00000
    442      10.4886      0.00000
    443      10.5056      0.00000
    444      10.5152      0.00000
    445      10.5635      0.00000
    446      10.5921      0.00000
    447      10.6050      0.00000
    448      10.6184      0.00000
    449      10.6554      0.00000
    450      10.6704      0.00000
    451      10.6895      0.00000
    452      10.7214      0.00000
    453      10.7541      0.00000
    454      10.7731      0.00000
    455      10.7917      0.00000
    456      10.8219      0.00000
    457      10.8542      0.00000
    458      10.8725      0.00000
    459      10.8822      0.00000
    460      10.9018      0.00000
    461      10.9447      0.00000
    462      10.9696      0.00000
    463      10.9770      0.00000
    464      11.0710      0.00000

 k-point     6 :      -0.2500    0.2500    0.0000
  band No.  band energies     occupation 
      1     -45.5192      2.00000
      2     -39.4675      2.00000
      3     -39.4264      2.00000
      4     -39.4114      2.00000
      5     -39.3993      2.00000
      6     -39.3961      2.00000
      7     -39.3855      2.00000
      8     -39.3746      2.00000
      9     -39.3635      2.00000
     10     -39.3567      2.00000
     11     -39.3416      2.00000
     12     -39.3360      2.00000
     13     -39.3337      2.00000
     14     -39.3306      2.00000
     15     -39.3180      2.00000
     16     -39.3073      2.00000
     17     -39.3042      2.00000
     18     -39.2964      2.00000
     19     -39.2945      2.00000
     20     -39.2898      2.00000
     21     -39.2768      2.00000
     22     -39.2734      2.00000
     23     -39.2658      2.00000
     24     -39.2598      2.00000
     25     -39.2492      2.00000
     26     -39.2430      2.00000
     27     -39.2400      2.00000
     28     -39.2360      2.00000
     29     -39.2348      2.00000
     30     -39.2305      2.00000
     31     -39.2270      2.00000
     32     -39.2178      2.00000
     33     -39.2083      2.00000
     34     -39.2050      2.00000
     35     -39.1962      2.00000
     36     -39.1901      2.00000
     37     -39.1807      2.00000
     38     -39.1729      2.00000
     39     -39.1651      2.00000
     40     -39.1542      2.00000
     41     -39.1496      2.00000
     42     -39.1477      2.00000
     43     -39.1469      2.00000
     44     -39.1346      2.00000
     45     -39.1296      2.00000
     46     -39.1226      2.00000
     47     -39.1147      2.00000
     48     -39.1090      2.00000
     49     -39.1046      2.00000
     50     -39.1017      2.00000
     51     -39.0984      2.00000
     52     -39.0944      2.00000
     53     -39.0827      2.00000
     54     -39.0701      2.00000
     55     -39.0635      2.00000
     56     -39.0610      2.00000
     57     -39.0304      2.00000
     58     -39.0251      2.00000
     59     -39.0216      2.00000
     60     -39.0197      2.00000
     61     -39.0145      2.00000
     62     -38.9512      2.00000
     63     -38.9137      2.00000
     64     -38.9131      2.00000
     65     -21.6081      2.00000
     66     -21.5850      2.00000
     67     -21.5569      2.00000
     68     -18.0442      2.00000
     69     -18.0015      2.00000
     70     -17.9807      2.00000
     71     -17.9730      2.00000
     72     -17.9650      2.00000
     73     -17.9508      2.00000
     74     -17.9452      2.00000
     75     -17.9361      2.00000
     76     -17.9205      2.00000
     77     -17.9076      2.00000
     78     -17.9011      2.00000
     79     -17.8984      2.00000
     80     -17.8884      2.00000
     81     -17.8790      2.00000
     82     -17.8620      2.00000
     83     -17.8538      2.00000
     84     -17.8465      2.00000
     85     -17.8408      2.00000
     86     -17.8258      2.00000
     87     -17.8188      2.00000
     88     -17.8126      2.00000
     89     -17.8072      2.00000
     90     -17.8027      2.00000
     91     -17.7876      2.00000
     92     -17.7818      2.00000
     93     -17.7724      2.00000
     94     -17.7652      2.00000
     95     -17.7589      2.00000
     96     -17.7510      2.00000
     97     -17.7422      2.00000
     98     -17.7390      2.00000
     99     -17.7292      2.00000
    100     -17.7246      2.00000
    101     -17.7159      2.00000
    102     -17.7051      2.00000
    103     -17.7010      2.00000
    104     -17.6896      2.00000
    105     -17.6832      2.00000
    106     -17.6799      2.00000
    107     -17.6670      2.00000
    108     -17.6521      2.00000
    109     -17.6489      2.00000
    110     -17.6398      2.00000
    111     -17.6308      2.00000
    112     -17.6223      2.00000
    113     -17.6159      2.00000
    114     -17.6085      2.00000
    115     -17.6021      2.00000
    116     -17.5979      2.00000
    117     -17.5927      2.00000
    118     -17.5876      2.00000
    119     -17.5815      2.00000
    120     -17.5708      2.00000
    121     -17.5657      2.00000
    122     -17.5537      2.00000
    123     -17.5447      2.00000
    124     -17.5400      2.00000
    125     -17.5340      2.00000
    126     -17.5292      2.00000
    127     -17.5099      2.00000
    128     -17.5047      2.00000
    129     -17.4960      2.00000
    130     -17.4910      2.00000
    131     -17.4862      2.00000
    132     -17.4781      2.00000
    133     -17.4701      2.00000
    134     -17.4657      2.00000
    135     -17.4540      2.00000
    136     -17.4498      2.00000
    137     -17.4401      2.00000
    138     -17.4317      2.00000
    139     -17.4213      2.00000
    140     -17.4094      2.00000
    141     -17.4053      2.00000
    142     -17.4033      2.00000
    143     -17.3946      2.00000
    144     -17.3866      2.00000
    145     -17.3786      2.00000
    146     -17.3654      2.00000
    147     -17.3584      2.00000
    148     -17.3459      2.00000
    149     -17.3376      2.00000
    150     -17.3326      2.00000
    151     -17.3283      2.00000
    152     -17.3155      2.00000
    153     -17.3064      2.00000
    154     -17.3038      2.00000
    155     -17.2917      2.00000
    156     -17.2828      2.00000
    157     -17.2807      2.00000
    158     -17.2726      2.00000
    159     -17.2690      2.00000
    160     -17.2620      2.00000
    161     -17.2516      2.00000
    162     -17.2454      2.00000
    163     -17.2362      2.00000
    164     -17.2319      2.00000
    165     -17.2223      2.00000
    166     -17.2165      2.00000
    167     -17.2066      2.00000
    168     -17.2037      2.00000
    169     -17.1987      2.00000
    170     -17.1882      2.00000
    171     -17.1807      2.00000
    172     -17.1722      2.00000
    173     -17.1691      2.00000
    174     -17.1650      2.00000
    175     -17.1566      2.00000
    176     -17.1503      2.00000
    177     -17.1444      2.00000
    178     -17.1412      2.00000
    179     -17.1350      2.00000
    180     -17.1295      2.00000
    181     -17.1209      2.00000
    182     -17.1175      2.00000
    183     -17.1127      2.00000
    184     -17.1062      2.00000
    185     -17.1024      2.00000
    186     -17.1001      2.00000
    187     -17.0952      2.00000
    188     -17.0930      2.00000
    189     -17.0897      2.00000
    190     -17.0779      2.00000
    191     -17.0766      2.00000
    192     -17.0725      2.00000
    193     -17.0664      2.00000
    194     -17.0625      2.00000
    195     -17.0562      2.00000
    196     -17.0506      2.00000
    197     -17.0456      2.00000
    198     -17.0418      2.00000
    199     -17.0368      2.00000
    200     -17.0340      2.00000
    201     -17.0300      2.00000
    202     -17.0210      2.00000
    203     -17.0155      2.00000
    204     -17.0076      2.00000
    205     -17.0015      2.00000
    206     -16.9975      2.00000
    207     -16.9944      2.00000
    208     -16.9894      2.00000
    209     -16.9849      2.00000
    210     -16.9795      2.00000
    211     -16.9774      2.00000
    212     -16.9732      2.00000
    213     -16.9654      2.00000
    214     -16.9639      2.00000
    215     -16.9602      2.00000
    216     -16.9511      2.00000
    217     -16.9467      2.00000
    218     -16.9425      2.00000
    219     -16.9360      2.00000
    220     -16.9322      2.00000
    221     -16.9261      2.00000
    222     -16.9238      2.00000
    223     -16.9172      2.00000
    224     -16.9138      2.00000
    225     -16.9080      2.00000
    226     -16.9032      2.00000
    227     -16.8968      2.00000
    228     -16.8888      2.00000
    229     -16.8830      2.00000
    230     -16.8795      2.00000
    231     -16.8756      2.00000
    232     -16.8656      2.00000
    233     -16.8624      2.00000
    234     -16.8551      2.00000
    235     -16.8522      2.00000
    236     -16.8417      2.00000
    237     -16.8403      2.00000
    238     -16.8308      2.00000
    239     -16.8203      2.00000
    240     -16.8178      2.00000
    241     -16.8077      2.00000
    242     -16.8010      2.00000
    243     -16.7989      2.00000
    244     -16.7853      2.00000
    245     -16.7767      2.00000
    246     -16.7651      2.00000
    247     -16.7582      2.00000
    248     -16.7546      2.00000
    249     -16.7421      2.00000
    250     -16.7306      2.00000
    251     -16.7103      2.00000
    252     -16.7042      2.00000
    253     -16.6963      2.00000
    254     -16.6628      2.00000
    255     -16.6493      2.00000
    256     -16.6429      2.00000
    257       3.9185      2.00000
    258       4.5545      2.00000
    259       4.7574      2.00000
    260       5.2938      2.00000
    261       5.5960      2.00000
    262       5.6137      2.00000
    263       5.6298      2.00000
    264       5.9829      2.00000
    265       6.0702      2.00000
    266       6.0925      2.00000
    267       6.1120      2.00000
    268       6.2377      2.00000
    269       6.2511      2.00000
    270       6.4022      2.00000
    271       6.4134      2.00000
    272       6.4564      2.00000
    273       6.4657      2.00000
    274       6.4693      2.00000
    275       6.4874      2.00000
    276       6.5034      2.00000
    277       6.5112      2.00000
    278       6.5351      2.00000
    279       6.5410      2.00000
    280       6.5622      2.00000
    281       6.5741      2.00000
    282       6.6072      2.00000
    283       6.6279      2.00000
    284       6.6419      2.00000
    285       6.6543      2.00000
    286       6.6629      2.00000
    287       6.7079      2.00000
    288       6.7487      2.00000
    289       6.7769      2.00000
    290       6.7976      2.00000
    291       6.8378      2.00000
    292       6.8556      2.00000
    293       6.8758      2.00000
    294       6.8824      2.00000
    295       6.9004      2.00000
    296       6.9107      2.00000
    297       6.9316      2.00000
    298       6.9427      2.00000
    299       6.9731      2.00000
    300       6.9884      2.00000
    301       7.0054      2.00000
    302       7.0152      2.00000
    303       7.0343      2.00000
    304       7.0599      2.00000
    305       7.0993      2.00000
    306       7.1177      2.00000
    307       7.1425      2.00000
    308       7.1782      2.00000
    309       7.2259      2.00000
    310       7.2577      2.00000
    311       7.2792      2.00000
    312       7.3187      2.00000
    313       7.3418      2.00000
    314       7.3708      2.00000
    315       7.3732      2.00000
    316       7.4034      2.00000
    317       7.4368      2.00000
    318       7.4591      2.00000
    319       7.4835      2.00000
    320       7.5001      2.00000
    321       7.5185      2.00000
    322       7.5589      2.00000
    323       7.5764      2.00000
    324       7.6196      2.00000
    325       7.6727      2.00000
    326       7.7619      2.00000
    327       7.7822      2.00000
    328       7.8233      2.00000
    329       7.8760      2.00000
    330       7.9239      2.00000
    331       7.9791      2.00000
    332       8.0008      2.00000
    333       8.0193      2.00000
    334       8.0558      2.00000
    335       8.0797      2.00000
    336       8.1180      2.00000
    337       8.1275      2.00000
    338       8.1625      2.00000
    339       8.1940      2.00000
    340       8.2123      2.00000
    341       8.2402      2.00000
    342       8.2549      2.00000
    343       8.2810      2.00000
    344       8.2878      2.00000
    345       8.3285      2.00000
    346       8.3470      2.00000
    347       8.3617      2.00000
    348       8.3811      2.00000
    349       8.4044      2.00000
    350       8.4158      2.00000
    351       8.4353      2.00000
    352       8.4532      2.00000
    353       8.4763      2.00000
    354       8.5063      2.00000
    355       8.5209      2.00000
    356       8.5497      2.00000
    357       8.5815      2.00000
    358       8.5894      2.00000
    359       8.6053      2.00000
    360       8.6316      2.00000
    361       8.6462      2.00000
    362       8.6648      2.00000
    363       8.6855      2.00000
    364       8.7153      2.00000
    365       8.7299      2.00000
    366       8.7622      2.00000
    367       8.7708      2.00000
    368       8.8118      2.00000
    369       8.8362      2.00000
    370       8.8743      2.00000
    371       8.8999      2.00000
    372       8.9228      2.00000
    373       8.9323      2.00000
    374       8.9743      2.00000
    375       9.0060      2.00000
    376       9.0414      2.00000
    377       9.0586      2.00000
    378       9.1086      1.99999
    379       9.1331      1.99975
    380       9.1466      1.99898
    381       9.1592      1.99657
    382       9.1910      1.95735
    383       9.2324      1.60842
    384       9.2450      1.38340
    385       9.2788      0.64850
    386       9.2879      0.47590
    387       9.3095      0.18521
    388       9.3471      0.01698
    389       9.3614      0.00522
    390       9.3799      0.00092
    391       9.3971      0.00014
    392       9.4208      0.00001
    393       9.4535      0.00000
    394       9.4706      0.00000
    395       9.4969      0.00000
    396       9.5242      0.00000
    397       9.5392      0.00000
    398       9.5544      0.00000
    399       9.5737      0.00000
    400       9.5985      0.00000
    401       9.6134      0.00000
    402       9.6252      0.00000
    403       9.6452      0.00000
    404       9.6767      0.00000
    405       9.6857      0.00000
    406       9.6959      0.00000
    407       9.7396      0.00000
    408       9.7653      0.00000
    409       9.7767      0.00000
    410       9.8037      0.00000
    411       9.8252      0.00000
    412       9.8445      0.00000
    413       9.8702      0.00000
    414       9.8911      0.00000
    415       9.9077      0.00000
    416       9.9304      0.00000
    417       9.9412      0.00000
    418       9.9704      0.00000
    419       9.9927      0.00000
    420      10.0223      0.00000
    421      10.0275      0.00000
    422      10.0468      0.00000
    423      10.0761      0.00000
    424      10.1025      0.00000
    425      10.1245      0.00000
    426      10.1299      0.00000
    427      10.1505      0.00000
    428      10.1677      0.00000
    429      10.1864      0.00000
    430      10.2109      0.00000
    431      10.2316      0.00000
    432      10.2389      0.00000
    433      10.2545      0.00000
    434      10.3011      0.00000
    435      10.3183      0.00000
    436      10.3321      0.00000
    437      10.3552      0.00000
    438      10.3980      0.00000
    439      10.4069      0.00000
    440      10.4429      0.00000
    441      10.4583      0.00000
    442      10.4838      0.00000
    443      10.5052      0.00000
    444      10.5271      0.00000
    445      10.5540      0.00000
    446      10.5817      0.00000
    447      10.5987      0.00000
    448      10.6278      0.00000
    449      10.6494      0.00000
    450      10.6693      0.00000
    451      10.7008      0.00000
    452      10.7295      0.00000
    453      10.7526      0.00000
    454      10.7762      0.00000
    455      10.7885      0.00000
    456      10.8120      0.00000
    457      10.8403      0.00000
    458      10.8511      0.00000
    459      10.8889      0.00000
    460      10.9004      0.00000
    461      10.9264      0.00000
    462      10.9473      0.00000
    463      10.9783      0.00000
    464      11.0390      0.00000

 k-point     7 :       0.5000    0.2500    0.0000
  band No.  band energies     occupation 
      1     -45.5192      2.00000
      2     -39.4672      2.00000
      3     -39.4259      2.00000
      4     -39.4119      2.00000
      5     -39.3995      2.00000
      6     -39.3968      2.00000
      7     -39.3854      2.00000
      8     -39.3748      2.00000
      9     -39.3634      2.00000
     10     -39.3571      2.00000
     11     -39.3414      2.00000
     12     -39.3346      2.00000
     13     -39.3326      2.00000
     14     -39.3313      2.00000
     15     -39.3190      2.00000
     16     -39.3071      2.00000
     17     -39.3040      2.00000
     18     -39.2968      2.00000
     19     -39.2945      2.00000
     20     -39.2898      2.00000
     21     -39.2759      2.00000
     22     -39.2741      2.00000
     23     -39.2664      2.00000
     24     -39.2595      2.00000
     25     -39.2487      2.00000
     26     -39.2422      2.00000
     27     -39.2397      2.00000
     28     -39.2374      2.00000
     29     -39.2351      2.00000
     30     -39.2306      2.00000
     31     -39.2269      2.00000
     32     -39.2163      2.00000
     33     -39.2088      2.00000
     34     -39.2046      2.00000
     35     -39.1970      2.00000
     36     -39.1904      2.00000
     37     -39.1813      2.00000
     38     -39.1722      2.00000
     39     -39.1646      2.00000
     40     -39.1532      2.00000
     41     -39.1510      2.00000
     42     -39.1485      2.00000
     43     -39.1467      2.00000
     44     -39.1345      2.00000
     45     -39.1293      2.00000
     46     -39.1228      2.00000
     47     -39.1149      2.00000
     48     -39.1077      2.00000
     49     -39.1051      2.00000
     50     -39.1022      2.00000
     51     -39.0987      2.00000
     52     -39.0941      2.00000
     53     -39.0830      2.00000
     54     -39.0700      2.00000
     55     -39.0635      2.00000
     56     -39.0609      2.00000
     57     -39.0305      2.00000
     58     -39.0252      2.00000
     59     -39.0214      2.00000
     60     -39.0198      2.00000
     61     -39.0145      2.00000
     62     -38.9512      2.00000
     63     -38.9137      2.00000
     64     -38.9131      2.00000
     65     -21.6081      2.00000
     66     -21.5850      2.00000
     67     -21.5569      2.00000
     68     -18.0392      2.00000
     69     -17.9988      2.00000
     70     -17.9829      2.00000
     71     -17.9703      2.00000
     72     -17.9653      2.00000
     73     -17.9471      2.00000
     74     -17.9450      2.00000
     75     -17.9275      2.00000
     76     -17.9162      2.00000
     77     -17.9089      2.00000
     78     -17.9036      2.00000
     79     -17.8881      2.00000
     80     -17.8852      2.00000
     81     -17.8751      2.00000
     82     -17.8665      2.00000
     83     -17.8592      2.00000
     84     -17.8474      2.00000
     85     -17.8378      2.00000
     86     -17.8311      2.00000
     87     -17.8247      2.00000
     88     -17.8164      2.00000
     89     -17.8098      2.00000
     90     -17.8014      2.00000
     91     -17.7867      2.00000
     92     -17.7806      2.00000
     93     -17.7755      2.00000
     94     -17.7685      2.00000
     95     -17.7573      2.00000
     96     -17.7505      2.00000
     97     -17.7456      2.00000
     98     -17.7366      2.00000
     99     -17.7312      2.00000
    100     -17.7193      2.00000
    101     -17.7160      2.00000
    102     -17.7132      2.00000
    103     -17.7039      2.00000
    104     -17.6931      2.00000
    105     -17.6866      2.00000
    106     -17.6795      2.00000
    107     -17.6721      2.00000
    108     -17.6594      2.00000
    109     -17.6504      2.00000
    110     -17.6407      2.00000
    111     -17.6322      2.00000
    112     -17.6207      2.00000
    113     -17.6137      2.00000
    114     -17.6091      2.00000
    115     -17.6028      2.00000
    116     -17.5969      2.00000
    117     -17.5883      2.00000
    118     -17.5824      2.00000
    119     -17.5772      2.00000
    120     -17.5737      2.00000
    121     -17.5666      2.00000
    122     -17.5560      2.00000
    123     -17.5476      2.00000
    124     -17.5386      2.00000
    125     -17.5334      2.00000
    126     -17.5292      2.00000
    127     -17.5199      2.00000
    128     -17.5069      2.00000
    129     -17.4971      2.00000
    130     -17.4920      2.00000
    131     -17.4893      2.00000
    132     -17.4847      2.00000
    133     -17.4744      2.00000
    134     -17.4705      2.00000
    135     -17.4597      2.00000
    136     -17.4542      2.00000
    137     -17.4427      2.00000
    138     -17.4406      2.00000
    139     -17.4305      2.00000
    140     -17.4161      2.00000
    141     -17.4078      2.00000
    142     -17.4022      2.00000
    143     -17.3911      2.00000
    144     -17.3829      2.00000
    145     -17.3741      2.00000
    146     -17.3560      2.00000
    147     -17.3499      2.00000
    148     -17.3389      2.00000
    149     -17.3366      2.00000
    150     -17.3266      2.00000
    151     -17.3178      2.00000
    152     -17.3086      2.00000
    153     -17.3030      2.00000
    154     -17.2963      2.00000
    155     -17.2887      2.00000
    156     -17.2834      2.00000
    157     -17.2819      2.00000
    158     -17.2700      2.00000
    159     -17.2655      2.00000
    160     -17.2588      2.00000
    161     -17.2477      2.00000
    162     -17.2438      2.00000
    163     -17.2384      2.00000
    164     -17.2285      2.00000
    165     -17.2214      2.00000
    166     -17.2186      2.00000
    167     -17.2099      2.00000
    168     -17.2015      2.00000
    169     -17.1922      2.00000
    170     -17.1869      2.00000
    171     -17.1831      2.00000
    172     -17.1770      2.00000
    173     -17.1683      2.00000
    174     -17.1643      2.00000
    175     -17.1564      2.00000
    176     -17.1497      2.00000
    177     -17.1473      2.00000
    178     -17.1400      2.00000
    179     -17.1373      2.00000
    180     -17.1306      2.00000
    181     -17.1216      2.00000
    182     -17.1180      2.00000
    183     -17.1122      2.00000
    184     -17.1072      2.00000
    185     -17.1027      2.00000
    186     -17.0980      2.00000
    187     -17.0958      2.00000
    188     -17.0896      2.00000
    189     -17.0856      2.00000
    190     -17.0798      2.00000
    191     -17.0752      2.00000
    192     -17.0662      2.00000
    193     -17.0631      2.00000
    194     -17.0598      2.00000
    195     -17.0545      2.00000
    196     -17.0528      2.00000
    197     -17.0485      2.00000
    198     -17.0402      2.00000
    199     -17.0371      2.00000
    200     -17.0304      2.00000
    201     -17.0261      2.00000
    202     -17.0219      2.00000
    203     -17.0143      2.00000
    204     -17.0110      2.00000
    205     -17.0016      2.00000
    206     -16.9990      2.00000
    207     -16.9911      2.00000
    208     -16.9889      2.00000
    209     -16.9839      2.00000
    210     -16.9813      2.00000
    211     -16.9770      2.00000
    212     -16.9694      2.00000
    213     -16.9676      2.00000
    214     -16.9636      2.00000
    215     -16.9587      2.00000
    216     -16.9523      2.00000
    217     -16.9471      2.00000
    218     -16.9440      2.00000
    219     -16.9374      2.00000
    220     -16.9337      2.00000
    221     -16.9287      2.00000
    222     -16.9228      2.00000
    223     -16.9205      2.00000
    224     -16.9108      2.00000
    225     -16.9079      2.00000
    226     -16.9035      2.00000
    227     -16.8925      2.00000
    228     -16.8900      2.00000
    229     -16.8846      2.00000
    230     -16.8828      2.00000
    231     -16.8757      2.00000
    232     -16.8667      2.00000
    233     -16.8597      2.00000
    234     -16.8561      2.00000
    235     -16.8504      2.00000
    236     -16.8477      2.00000
    237     -16.8422      2.00000
    238     -16.8318      2.00000
    239     -16.8203      2.00000
    240     -16.8182      2.00000
    241     -16.8090      2.00000
    242     -16.8027      2.00000
    243     -16.7993      2.00000
    244     -16.7855      2.00000
    245     -16.7775      2.00000
    246     -16.7675      2.00000
    247     -16.7590      2.00000
    248     -16.7536      2.00000
    249     -16.7447      2.00000
    250     -16.7314      2.00000
    251     -16.7108      2.00000
    252     -16.7042      2.00000
    253     -16.6957      2.00000
    254     -16.6627      2.00000
    255     -16.6504      2.00000
    256     -16.6449      2.00000
    257       4.1577      2.00000
    258       4.1744      2.00000
    259       4.9677      2.00000
    260       4.9782      2.00000
    261       5.7848      2.00000
    262       5.7981      2.00000
    263       5.8367      2.00000
    264       5.8548      2.00000
    265       6.1566      2.00000
    266       6.1908      2.00000
    267       6.2123      2.00000
    268       6.2226      2.00000
    269       6.3267      2.00000
    270       6.3502      2.00000
    271       6.3707      2.00000
    272       6.3795      2.00000
    273       6.3931      2.00000
    274       6.4046      2.00000
    275       6.4421      2.00000
    276       6.4536      2.00000
    277       6.5024      2.00000
    278       6.5490      2.00000
    279       6.5557      2.00000
    280       6.5902      2.00000
    281       6.6137      2.00000
    282       6.6273      2.00000
    283       6.6575      2.00000
    284       6.6679      2.00000
    285       6.6851      2.00000
    286       6.7126      2.00000
    287       6.7241      2.00000
    288       6.7363      2.00000
    289       6.7478      2.00000
    290       6.7574      2.00000
    291       6.7661      2.00000
    292       6.7869      2.00000
    293       6.8118      2.00000
    294       6.8336      2.00000
    295       6.8424      2.00000
    296       6.8711      2.00000
    297       6.9066      2.00000
    298       6.9197      2.00000
    299       6.9430      2.00000
    300       6.9649      2.00000
    301       6.9962      2.00000
    302       7.0196      2.00000
    303       7.0342      2.00000
    304       7.0605      2.00000
    305       7.1054      2.00000
    306       7.1133      2.00000
    307       7.1558      2.00000
    308       7.1877      2.00000
    309       7.2082      2.00000
    310       7.2227      2.00000
    311       7.2495      2.00000
    312       7.2863      2.00000
    313       7.3142      2.00000
    314       7.3311      2.00000
    315       7.3601      2.00000
    316       7.4001      2.00000
    317       7.4301      2.00000
    318       7.4546      2.00000
    319       7.4716      2.00000
    320       7.4957      2.00000
    321       7.5390      2.00000
    322       7.5781      2.00000
    323       7.6029      2.00000
    324       7.6485      2.00000
    325       7.7048      2.00000
    326       7.7329      2.00000
    327       7.7637      2.00000
    328       7.7932      2.00000
    329       7.8252      2.00000
    330       7.8599      2.00000
    331       7.9016      2.00000
    332       7.9472      2.00000
    333       8.0307      2.00000
    334       8.0607      2.00000
    335       8.0940      2.00000
    336       8.1196      2.00000
    337       8.1538      2.00000
    338       8.1844      2.00000
    339       8.1981      2.00000
    340       8.2331      2.00000
    341       8.2508      2.00000
    342       8.2669      2.00000
    343       8.3039      2.00000
    344       8.3103      2.00000
    345       8.3473      2.00000
    346       8.3624      2.00000
    347       8.3834      2.00000
    348       8.4069      2.00000
    349       8.4247      2.00000
    350       8.4306      2.00000
    351       8.4517      2.00000
    352       8.4637      2.00000
    353       8.4857      2.00000
    354       8.4951      2.00000
    355       8.5142      2.00000
    356       8.5367      2.00000
    357       8.5715      2.00000
    358       8.5802      2.00000
    359       8.6000      2.00000
    360       8.6216      2.00000
    361       8.6529      2.00000
    362       8.6672      2.00000
    363       8.6907      2.00000
    364       8.7089      2.00000
    365       8.7416      2.00000
    366       8.7807      2.00000
    367       8.7967      2.00000
    368       8.8340      2.00000
    369       8.8651      2.00000
    370       8.8727      2.00000
    371       8.8990      2.00000
    372       8.9227      2.00000
    373       8.9557      2.00000
    374       8.9791      2.00000
    375       9.0129      2.00000
    376       9.0490      2.00000
    377       9.0592      2.00000
    378       9.1025      1.99999
    379       9.1417      1.99938
    380       9.1513      1.99837
    381       9.1987      1.92990
    382       9.2152      1.82057
    383       9.2479      1.32498
    384       9.2666      0.91261
    385       9.2896      0.44668
    386       9.2997      0.29511
    387       9.3318      0.05080
    388       9.3472      0.01685
    389       9.3766      0.00128
    390       9.3824      0.00071
    391       9.4120      0.00002
    392       9.4326      0.00000
    393       9.4582      0.00000
    394       9.4701      0.00000
    395       9.5116      0.00000
    396       9.5290      0.00000
    397       9.5482      0.00000
    398       9.5562      0.00000
    399       9.5849      0.00000
    400       9.6006      0.00000
    401       9.6150      0.00000
    402       9.6400      0.00000
    403       9.6737      0.00000
    404       9.6836      0.00000
    405       9.6956      0.00000
    406       9.7120      0.00000
    407       9.7375      0.00000
    408       9.7545      0.00000
    409       9.7755      0.00000
    410       9.8080      0.00000
    411       9.8389      0.00000
    412       9.8629      0.00000
    413       9.8739      0.00000
    414       9.8972      0.00000
    415       9.9221      0.00000
    416       9.9271      0.00000
    417       9.9551      0.00000
    418       9.9651      0.00000
    419       9.9894      0.00000
    420      10.0165      0.00000
    421      10.0420      0.00000
    422      10.0498      0.00000
    423      10.0639      0.00000
    424      10.0978      0.00000
    425      10.1226      0.00000
    426      10.1356      0.00000
    427      10.1576      0.00000
    428      10.1649      0.00000
    429      10.1767      0.00000
    430      10.2077      0.00000
    431      10.2459      0.00000
    432      10.2579      0.00000
    433      10.2777      0.00000
    434      10.3084      0.00000
    435      10.3233      0.00000
    436      10.3451      0.00000
    437      10.3596      0.00000
    438      10.3762      0.00000
    439      10.4206      0.00000
    440      10.4298      0.00000
    441      10.4478      0.00000
    442      10.4649      0.00000
    443      10.4748      0.00000
    444      10.5111      0.00000
    445      10.5283      0.00000
    446      10.5529      0.00000
    447      10.5756      0.00000
    448      10.6018      0.00000
    449      10.6325      0.00000
    450      10.6534      0.00000
    451      10.6711      0.00000
    452      10.6947      0.00000
    453      10.7248      0.00000
    454      10.7493      0.00000
    455      10.7665      0.00000
    456      10.7816      0.00000
    457      10.8089      0.00000
    458      10.8286      0.00000
    459      10.8527      0.00000
    460      10.8805      0.00000
    461      10.9123      0.00000
    462      10.9429      0.00000
    463      10.9611      0.00000
    464      11.0174      0.00000

 k-point     8 :      -0.0000    0.5000    0.0000
  band No.  band energies     occupation 
      1     -45.5192      2.00000
      2     -39.4669      2.00000
      3     -39.4271      2.00000
      4     -39.4086      2.00000
      5     -39.4016      2.00000
      6     -39.3963      2.00000
      7     -39.3856      2.00000
      8     -39.3747      2.00000
      9     -39.3622      2.00000
     10     -39.3576      2.00000
     11     -39.3403      2.00000
     12     -39.3387      2.00000
     13     -39.3332      2.00000
     14     -39.3277      2.00000
     15     -39.3243      2.00000
     16     -39.3074      2.00000
     17     -39.3030      2.00000
     18     -39.2949      2.00000
     19     -39.2928      2.00000
     20     -39.2906      2.00000
     21     -39.2770      2.00000
     22     -39.2720      2.00000
     23     -39.2667      2.00000
     24     -39.2614      2.00000
     25     -39.2468      2.00000
     26     -39.2436      2.00000
     27     -39.2401      2.00000
     28     -39.2360      2.00000
     29     -39.2341      2.00000
     30     -39.2315      2.00000
     31     -39.2265      2.00000
     32     -39.2193      2.00000
     33     -39.2078      2.00000
     34     -39.2042      2.00000
     35     -39.1952      2.00000
     36     -39.1896      2.00000
     37     -39.1800      2.00000
     38     -39.1737      2.00000
     39     -39.1662      2.00000
     40     -39.1548      2.00000
     41     -39.1483      2.00000
     42     -39.1478      2.00000
     43     -39.1471      2.00000
     44     -39.1346      2.00000
     45     -39.1304      2.00000
     46     -39.1222      2.00000
     47     -39.1144      2.00000
     48     -39.1107      2.00000
     49     -39.1048      2.00000
     50     -39.1008      2.00000
     51     -39.0964      2.00000
     52     -39.0960      2.00000
     53     -39.0827      2.00000
     54     -39.0703      2.00000
     55     -39.0637      2.00000
     56     -39.0611      2.00000
     57     -39.0302      2.00000
     58     -39.0251      2.00000
     59     -39.0217      2.00000
     60     -39.0194      2.00000
     61     -39.0146      2.00000
     62     -38.9512      2.00000
     63     -38.9137      2.00000
     64     -38.9131      2.00000
     65     -21.6081      2.00000
     66     -21.5850      2.00000
     67     -21.5569      2.00000
     68     -18.0403      2.00000
     69     -17.9936      2.00000
     70     -17.9749      2.00000
     71     -17.9710      2.00000
     72     -17.9591      2.00000
     73     -17.9516      2.00000
     74     -17.9377      2.00000
     75     -17.9194      2.00000
     76     -17.9191      2.00000
     77     -17.9110      2.00000
     78     -17.9053      2.00000
     79     -17.8935      2.00000
     80     -17.8845      2.00000
     81     -17.8779      2.00000
     82     -17.8668      2.00000
     83     -17.8530      2.00000
     84     -17.8473      2.00000
     85     -17.8415      2.00000
     86     -17.8382      2.00000
     87     -17.8300      2.00000
     88     -17.8262      2.00000
     89     -17.8134      2.00000
     90     -17.8042      2.00000
     91     -17.8026      2.00000
     92     -17.7879      2.00000
     93     -17.7794      2.00000
     94     -17.7715      2.00000
     95     -17.7684      2.00000
     96     -17.7566      2.00000
     97     -17.7480      2.00000
     98     -17.7430      2.00000
     99     -17.7390      2.00000
    100     -17.7129      2.00000
    101     -17.7123      2.00000
    102     -17.7094      2.00000
    103     -17.6888      2.00000
    104     -17.6871      2.00000
    105     -17.6797      2.00000
    106     -17.6772      2.00000
    107     -17.6646      2.00000
    108     -17.6608      2.00000
    109     -17.6495      2.00000
    110     -17.6438      2.00000
    111     -17.6315      2.00000
    112     -17.6264      2.00000
    113     -17.6228      2.00000
    114     -17.6114      2.00000
    115     -17.5964      2.00000
    116     -17.5924      2.00000
    117     -17.5846      2.00000
    118     -17.5810      2.00000
    119     -17.5764      2.00000
    120     -17.5661      2.00000
    121     -17.5650      2.00000
    122     -17.5591      2.00000
    123     -17.5481      2.00000
    124     -17.5434      2.00000
    125     -17.5345      2.00000
    126     -17.5340      2.00000
    127     -17.5050      2.00000
    128     -17.5019      2.00000
    129     -17.4931      2.00000
    130     -17.4914      2.00000
    131     -17.4827      2.00000
    132     -17.4736      2.00000
    133     -17.4712      2.00000
    134     -17.4528      2.00000
    135     -17.4448      2.00000
    136     -17.4417      2.00000
    137     -17.4346      2.00000
    138     -17.4257      2.00000
    139     -17.4186      2.00000
    140     -17.4099      2.00000
    141     -17.3961      2.00000
    142     -17.3952      2.00000
    143     -17.3866      2.00000
    144     -17.3824      2.00000
    145     -17.3695      2.00000
    146     -17.3630      2.00000
    147     -17.3599      2.00000
    148     -17.3515      2.00000
    149     -17.3464      2.00000
    150     -17.3334      2.00000
    151     -17.3264      2.00000
    152     -17.3173      2.00000
    153     -17.3167      2.00000
    154     -17.3050      2.00000
    155     -17.2976      2.00000
    156     -17.2889      2.00000
    157     -17.2863      2.00000
    158     -17.2807      2.00000
    159     -17.2665      2.00000
    160     -17.2637      2.00000
    161     -17.2561      2.00000
    162     -17.2391      2.00000
    163     -17.2373      2.00000
    164     -17.2332      2.00000
    165     -17.2241      2.00000
    166     -17.2203      2.00000
    167     -17.2132      2.00000
    168     -17.2060      2.00000
    169     -17.1966      2.00000
    170     -17.1891      2.00000
    171     -17.1794      2.00000
    172     -17.1726      2.00000
    173     -17.1702      2.00000
    174     -17.1606      2.00000
    175     -17.1560      2.00000
    176     -17.1534      2.00000
    177     -17.1518      2.00000
    178     -17.1332      2.00000
    179     -17.1299      2.00000
    180     -17.1268      2.00000
    181     -17.1217      2.00000
    182     -17.1184      2.00000
    183     -17.1115      2.00000
    184     -17.1024      2.00000
    185     -17.0995      2.00000
    186     -17.0991      2.00000
    187     -17.0947      2.00000
    188     -17.0911      2.00000
    189     -17.0864      2.00000
    190     -17.0804      2.00000
    191     -17.0756      2.00000
    192     -17.0724      2.00000
    193     -17.0665      2.00000
    194     -17.0657      2.00000
    195     -17.0565      2.00000
    196     -17.0513      2.00000
    197     -17.0476      2.00000
    198     -17.0438      2.00000
    199     -17.0372      2.00000
    200     -17.0313      2.00000
    201     -17.0262      2.00000
    202     -17.0201      2.00000
    203     -17.0152      2.00000
    204     -17.0111      2.00000
    205     -17.0070      2.00000
    206     -17.0015      2.00000
    207     -16.9974      2.00000
    208     -16.9892      2.00000
    209     -16.9863      2.00000
    210     -16.9810      2.00000
    211     -16.9775      2.00000
    212     -16.9720      2.00000
    213     -16.9676      2.00000
    214     -16.9642      2.00000
    215     -16.9603      2.00000
    216     -16.9575      2.00000
    217     -16.9457      2.00000
    218     -16.9415      2.00000
    219     -16.9354      2.00000
    220     -16.9307      2.00000
    221     -16.9282      2.00000
    222     -16.9231      2.00000
    223     -16.9174      2.00000
    224     -16.9159      2.00000
    225     -16.9085      2.00000
    226     -16.9009      2.00000
    227     -16.8949      2.00000
    228     -16.8910      2.00000
    229     -16.8821      2.00000
    230     -16.8762      2.00000
    231     -16.8728      2.00000
    232     -16.8648      2.00000
    233     -16.8591      2.00000
    234     -16.8562      2.00000
    235     -16.8534      2.00000
    236     -16.8410      2.00000
    237     -16.8338      2.00000
    238     -16.8284      2.00000
    239     -16.8255      2.00000
    240     -16.8160      2.00000
    241     -16.8092      2.00000
    242     -16.8062      2.00000
    243     -16.7987      2.00000
    244     -16.7815      2.00000
    245     -16.7761      2.00000
    246     -16.7677      2.00000
    247     -16.7589      2.00000
    248     -16.7554      2.00000
    249     -16.7394      2.00000
    250     -16.7291      2.00000
    251     -16.7074      2.00000
    252     -16.7047      2.00000
    253     -16.6948      2.00000
    254     -16.6706      2.00000
    255     -16.6513      2.00000
    256     -16.6398      2.00000
    257       4.1523      2.00000
    258       4.1829      2.00000
    259       5.2585      2.00000
    260       5.2825      2.00000
    261       5.2999      2.00000
    262       5.3176      2.00000
    263       5.7983      2.00000
    264       5.8039      2.00000
    265       5.8235      2.00000
    266       5.8622      2.00000
    267       6.3501      2.00000
    268       6.3815      2.00000
    269       6.3896      2.00000
    270       6.4118      2.00000
    271       6.4175      2.00000
    272       6.4376      2.00000
    273       6.4536      2.00000
    274       6.4624      2.00000
    275       6.4778      2.00000
    276       6.4929      2.00000
    277       6.5001      2.00000
    278       6.5124      2.00000
    279       6.5150      2.00000
    280       6.5491      2.00000
    281       6.6035      2.00000
    282       6.6282      2.00000
    283       6.6504      2.00000
    284       6.6625      2.00000
    285       6.6827      2.00000
    286       6.7027      2.00000
    287       6.7471      2.00000
    288       6.7667      2.00000
    289       6.7920      2.00000
    290       6.8037      2.00000
    291       6.8813      2.00000
    292       6.8958      2.00000
    293       6.9051      2.00000
    294       6.9374      2.00000
    295       6.9718      2.00000
    296       6.9867      2.00000
    297       7.0026      2.00000
    298       7.0256      2.00000
    299       7.0445      2.00000
    300       7.0575      2.00000
    301       7.0713      2.00000
    302       7.0953      2.00000
    303       7.1081      2.00000
    304       7.1325      2.00000
    305       7.1440      2.00000
    306       7.1606      2.00000
    307       7.1647      2.00000
    308       7.1864      2.00000
    309       7.1939      2.00000
    310       7.2092      2.00000
    311       7.2315      2.00000
    312       7.2401      2.00000
    313       7.2790      2.00000
    314       7.2964      2.00000
    315       7.3135      2.00000
    316       7.3581      2.00000
    317       7.3617      2.00000
    318       7.3710      2.00000
    319       7.3830      2.00000
    320       7.4094      2.00000
    321       7.4263      2.00000
    322       7.4452      2.00000
    323       7.4983      2.00000
    324       7.5499      2.00000
    325       7.5782      2.00000
    326       7.6567      2.00000
    327       7.8019      2.00000
    328       7.8859      2.00000
    329       7.9246      2.00000
    330       7.9387      2.00000
    331       7.9908      2.00000
    332       8.0005      2.00000
    333       8.0332      2.00000
    334       8.0476      2.00000
    335       8.0914      2.00000
    336       8.1007      2.00000
    337       8.1283      2.00000
    338       8.1564      2.00000
    339       8.2047      2.00000
    340       8.2099      2.00000
    341       8.2343      2.00000
    342       8.2567      2.00000
    343       8.2992      2.00000
    344       8.3019      2.00000
    345       8.3293      2.00000
    346       8.3323      2.00000
    347       8.3646      2.00000
    348       8.3825      2.00000
    349       8.4024      2.00000
    350       8.4208      2.00000
    351       8.4521      2.00000
    352       8.4774      2.00000
    353       8.4914      2.00000
    354       8.5140      2.00000
    355       8.5310      2.00000
    356       8.5576      2.00000
    357       8.5933      2.00000
    358       8.6041      2.00000
    359       8.6264      2.00000
    360       8.6662      2.00000
    361       8.6701      2.00000
    362       8.7021      2.00000
    363       8.7075      2.00000
    364       8.7336      2.00000
    365       8.7515      2.00000
    366       8.7754      2.00000
    367       8.7848      2.00000
    368       8.8070      2.00000
    369       8.8422      2.00000
    370       8.8839      2.00000
    371       8.9000      2.00000
    372       8.9098      2.00000
    373       8.9499      2.00000
    374       8.9799      2.00000
    375       8.9929      2.00000
    376       9.0121      2.00000
    377       9.0752      2.00000
    378       9.0800      2.00000
    379       9.1137      1.99997
    380       9.1215      1.99994
    381       9.1676      1.99285
    382       9.2034      1.90626
    383       9.2150      1.82306
    384       9.2409      1.46284
    385       9.2839      0.54823
    386       9.3063      0.21797
    387       9.3262      0.07250
    388       9.3359      0.03830
    389       9.3563      0.00811
    390       9.3832      0.00065
    391       9.3991      0.00011
    392       9.4259      0.00000
    393       9.4425      0.00000
    394       9.4649      0.00000
    395       9.5100      0.00000
    396       9.5365      0.00000
    397       9.5646      0.00000
    398       9.6021      0.00000
    399       9.6294      0.00000
    400       9.6396      0.00000
    401       9.6708      0.00000
    402       9.7089      0.00000
    403       9.7188      0.00000
    404       9.7315      0.00000
    405       9.7416      0.00000
    406       9.7589      0.00000
    407       9.7862      0.00000
    408       9.7971      0.00000
    409       9.8199      0.00000
    410       9.8469      0.00000
    411       9.8570      0.00000
    412       9.8692      0.00000
    413       9.8793      0.00000
    414       9.9035      0.00000
    415       9.9518      0.00000
    416       9.9644      0.00000
    417       9.9683      0.00000
    418       9.9947      0.00000
    419      10.0232      0.00000
    420      10.0364      0.00000
    421      10.0439      0.00000
    422      10.0529      0.00000
    423      10.0779      0.00000
    424      10.0813      0.00000
    425      10.1000      0.00000
    426      10.1335      0.00000
    427      10.1572      0.00000
    428      10.1891      0.00000
    429      10.1997      0.00000
    430      10.2143      0.00000
    431      10.2414      0.00000
    432      10.2595      0.00000
    433      10.2719      0.00000
    434      10.3071      0.00000
    435      10.3409      0.00000
    436      10.3600      0.00000
    437      10.3621      0.00000
    438      10.3836      0.00000
    439      10.4034      0.00000
    440      10.4480      0.00000
    441      10.4612      0.00000
    442      10.4771      0.00000
    443      10.4854      0.00000
    444      10.5162      0.00000
    445      10.5319      0.00000
    446      10.5610      0.00000
    447      10.5904      0.00000
    448      10.6115      0.00000
    449      10.6227      0.00000
    450      10.6505      0.00000
    451      10.6864      0.00000
    452      10.7017      0.00000
    453      10.7075      0.00000
    454      10.7280      0.00000
    455      10.7495      0.00000
    456      10.7656      0.00000
    457      10.7747      0.00000
    458      10.8025      0.00000
    459      10.8233      0.00000
    460      10.8551      0.00000
    461      10.8992      0.00000
    462      10.9135      0.00000
    463      10.9325      0.00000
    464      10.9703      0.00000

 k-point     9 :       0.2500    0.5000    0.0000
  band No.  band energies     occupation 
      1     -45.5192      2.00000
      2     -39.4668      2.00000
      3     -39.4265      2.00000
      4     -39.4092      2.00000
      5     -39.4017      2.00000
      6     -39.3967      2.00000
      7     -39.3855      2.00000
      8     -39.3750      2.00000
      9     -39.3626      2.00000
     10     -39.3580      2.00000
     11     -39.3401      2.00000
     12     -39.3378      2.00000
     13     -39.3332      2.00000
     14     -39.3300      2.00000
     15     -39.3211      2.00000
     16     -39.3065      2.00000
     17     -39.3033      2.00000
     18     -39.2955      2.00000
     19     -39.2933      2.00000
     20     -39.2906      2.00000
     21     -39.2768      2.00000
     22     -39.2727      2.00000
     23     -39.2667      2.00000
     24     -39.2610      2.00000
     25     -39.2463      2.00000
     26     -39.2427      2.00000
     27     -39.2404      2.00000
     28     -39.2370      2.00000
     29     -39.2335      2.00000
     30     -39.2324      2.00000
     31     -39.2268      2.00000
     32     -39.2176      2.00000
     33     -39.2081      2.00000
     34     -39.2041      2.00000
     35     -39.1960      2.00000
     36     -39.1900      2.00000
     37     -39.1806      2.00000
     38     -39.1728      2.00000
     39     -39.1656      2.00000
     40     -39.1543      2.00000
     41     -39.1495      2.00000
     42     -39.1480      2.00000
     43     -39.1474      2.00000
     44     -39.1344      2.00000
     45     -39.1300      2.00000
     46     -39.1224      2.00000
     47     -39.1148      2.00000
     48     -39.1095      2.00000
     49     -39.1049      2.00000
     50     -39.1012      2.00000
     51     -39.0977      2.00000
     52     -39.0947      2.00000
     53     -39.0829      2.00000
     54     -39.0702      2.00000
     55     -39.0637      2.00000
     56     -39.0609      2.00000
     57     -39.0303      2.00000
     58     -39.0251      2.00000
     59     -39.0215      2.00000
     60     -39.0195      2.00000
     61     -39.0146      2.00000
     62     -38.9512      2.00000
     63     -38.9137      2.00000
     64     -38.9131      2.00000
     65     -21.6081      2.00000
     66     -21.5850      2.00000
     67     -21.5569      2.00000
     68     -18.0379      2.00000
     69     -17.9885      2.00000
     70     -17.9753      2.00000
     71     -17.9685      2.00000
     72     -17.9575      2.00000
     73     -17.9476      2.00000
     74     -17.9405      2.00000
     75     -17.9244      2.00000
     76     -17.9184      2.00000
     77     -17.9098      2.00000
     78     -17.9004      2.00000
     79     -17.8914      2.00000
     80     -17.8851      2.00000
     81     -17.8739      2.00000
     82     -17.8650      2.00000
     83     -17.8556      2.00000
     84     -17.8458      2.00000
     85     -17.8399      2.00000
     86     -17.8349      2.00000
     87     -17.8304      2.00000
     88     -17.8252      2.00000
     89     -17.8071      2.00000
     90     -17.8027      2.00000
     91     -17.8005      2.00000
     92     -17.7929      2.00000
     93     -17.7724      2.00000
     94     -17.7699      2.00000
     95     -17.7644      2.00000
     96     -17.7559      2.00000
     97     -17.7481      2.00000
     98     -17.7397      2.00000
     99     -17.7338      2.00000
    100     -17.7255      2.00000
    101     -17.7172      2.00000
    102     -17.7151      2.00000
    103     -17.7049      2.00000
    104     -17.6937      2.00000
    105     -17.6927      2.00000
    106     -17.6779      2.00000
    107     -17.6713      2.00000
    108     -17.6652      2.00000
    109     -17.6529      2.00000
    110     -17.6434      2.00000
    111     -17.6325      2.00000
    112     -17.6258      2.00000
    113     -17.6159      2.00000
    114     -17.6098      2.00000
    115     -17.6046      2.00000
    116     -17.5977      2.00000
    117     -17.5902      2.00000
    118     -17.5808      2.00000
    119     -17.5729      2.00000
    120     -17.5675      2.00000
    121     -17.5625      2.00000
    122     -17.5564      2.00000
    123     -17.5522      2.00000
    124     -17.5413      2.00000
    125     -17.5363      2.00000
    126     -17.5255      2.00000
    127     -17.5183      2.00000
    128     -17.5147      2.00000
    129     -17.4978      2.00000
    130     -17.4889      2.00000
    131     -17.4843      2.00000
    132     -17.4763      2.00000
    133     -17.4723      2.00000
    134     -17.4598      2.00000
    135     -17.4488      2.00000
    136     -17.4433      2.00000
    137     -17.4319      2.00000
    138     -17.4240      2.00000
    139     -17.4212      2.00000
    140     -17.4137      2.00000
    141     -17.4016      2.00000
    142     -17.3949      2.00000
    143     -17.3915      2.00000
    144     -17.3724      2.00000
    145     -17.3681      2.00000
    146     -17.3595      2.00000
    147     -17.3515      2.00000
    148     -17.3490      2.00000
    149     -17.3378      2.00000
    150     -17.3301      2.00000
    151     -17.3242      2.00000
    152     -17.3209      2.00000
    153     -17.3110      2.00000
    154     -17.2990      2.00000
    155     -17.2913      2.00000
    156     -17.2854      2.00000
    157     -17.2791      2.00000
    158     -17.2733      2.00000
    159     -17.2695      2.00000
    160     -17.2561      2.00000
    161     -17.2493      2.00000
    162     -17.2383      2.00000
    163     -17.2352      2.00000
    164     -17.2314      2.00000
    165     -17.2209      2.00000
    166     -17.2174      2.00000
    167     -17.2134      2.00000
    168     -17.2049      2.00000
    169     -17.1967      2.00000
    170     -17.1865      2.00000
    171     -17.1794      2.00000
    172     -17.1760      2.00000
    173     -17.1688      2.00000
    174     -17.1619      2.00000
    175     -17.1573      2.00000
    176     -17.1498      2.00000
    177     -17.1470      2.00000
    178     -17.1352      2.00000
    179     -17.1312      2.00000
    180     -17.1279      2.00000
    181     -17.1215      2.00000
    182     -17.1188      2.00000
    183     -17.1137      2.00000
    184     -17.1071      2.00000
    185     -17.1030      2.00000
    186     -17.0962      2.00000
    187     -17.0947      2.00000
    188     -17.0865      2.00000
    189     -17.0833      2.00000
    190     -17.0771      2.00000
    191     -17.0764      2.00000
    192     -17.0705      2.00000
    193     -17.0655      2.00000
    194     -17.0606      2.00000
    195     -17.0545      2.00000
    196     -17.0517      2.00000
    197     -17.0480      2.00000
    198     -17.0427      2.00000
    199     -17.0402      2.00000
    200     -17.0352      2.00000
    201     -17.0274      2.00000
    202     -17.0196      2.00000
    203     -17.0160      2.00000
    204     -17.0109      2.00000
    205     -17.0030      2.00000
    206     -17.0009      2.00000
    207     -16.9965      2.00000
    208     -16.9917      2.00000
    209     -16.9855      2.00000
    210     -16.9805      2.00000
    211     -16.9777      2.00000
    212     -16.9717      2.00000
    213     -16.9661      2.00000
    214     -16.9644      2.00000
    215     -16.9632      2.00000
    216     -16.9553      2.00000
    217     -16.9492      2.00000
    218     -16.9432      2.00000
    219     -16.9359      2.00000
    220     -16.9311      2.00000
    221     -16.9283      2.00000
    222     -16.9234      2.00000
    223     -16.9175      2.00000
    224     -16.9158      2.00000
    225     -16.9097      2.00000
    226     -16.9022      2.00000
    227     -16.8944      2.00000
    228     -16.8904      2.00000
    229     -16.8826      2.00000
    230     -16.8810      2.00000
    231     -16.8736      2.00000
    232     -16.8647      2.00000
    233     -16.8578      2.00000
    234     -16.8563      2.00000
    235     -16.8516      2.00000
    236     -16.8431      2.00000
    237     -16.8377      2.00000
    238     -16.8305      2.00000
    239     -16.8246      2.00000
    240     -16.8192      2.00000
    241     -16.8106      2.00000
    242     -16.8022      2.00000
    243     -16.8003      2.00000
    244     -16.7828      2.00000
    245     -16.7761      2.00000
    246     -16.7702      2.00000
    247     -16.7588      2.00000
    248     -16.7544      2.00000
    249     -16.7427      2.00000
    250     -16.7296      2.00000
    251     -16.7095      2.00000
    252     -16.7037      2.00000
    253     -16.6944      2.00000
    254     -16.6689      2.00000
    255     -16.6512      2.00000
    256     -16.6425      2.00000
    257       4.2330      2.00000
    258       4.2632      2.00000
    259       4.8297      2.00000
    260       4.8561      2.00000
    261       5.7561      2.00000
    262       5.7842      2.00000
    263       5.8637      2.00000
    264       5.8704      2.00000
    265       5.8872      2.00000
    266       5.9242      2.00000
    267       6.2608      2.00000
    268       6.2745      2.00000
    269       6.2855      2.00000
    270       6.3040      2.00000
    271       6.4372      2.00000
    272       6.4657      2.00000
    273       6.4723      2.00000
    274       6.4892      2.00000
    275       6.5011      2.00000
    276       6.5281      2.00000
    277       6.5400      2.00000
    278       6.5547      2.00000
    279       6.5745      2.00000
    280       6.5890      2.00000
    281       6.6084      2.00000
    282       6.6159      2.00000
    283       6.6391      2.00000
    284       6.6424      2.00000
    285       6.6654      2.00000
    286       6.6882      2.00000
    287       6.7351      2.00000
    288       6.7600      2.00000
    289       6.7767      2.00000
    290       6.8329      2.00000
    291       6.8444      2.00000
    292       6.8750      2.00000
    293       6.8889      2.00000
    294       6.9263      2.00000
    295       6.9490      2.00000
    296       6.9741      2.00000
    297       6.9882      2.00000
    298       6.9989      2.00000
    299       7.0128      2.00000
    300       7.0226      2.00000
    301       7.0432      2.00000
    302       7.0669      2.00000
    303       7.0868      2.00000
    304       7.1015      2.00000
    305       7.1123      2.00000
    306       7.1394      2.00000
    307       7.1460      2.00000
    308       7.1514      2.00000
    309       7.1706      2.00000
    310       7.1960      2.00000
    311       7.2115      2.00000
    312       7.2429      2.00000
    313       7.2534      2.00000
    314       7.2669      2.00000
    315       7.2915      2.00000
    316       7.3133      2.00000
    317       7.3276      2.00000
    318       7.3796      2.00000
    319       7.4211      2.00000
    320       7.4419      2.00000
    321       7.4767      2.00000
    322       7.4866      2.00000
    323       7.5069      2.00000
    324       7.5462      2.00000
    325       7.5717      2.00000
    326       7.6342      2.00000
    327       7.6548      2.00000
    328       7.6974      2.00000
    329       7.7406      2.00000
    330       7.8007      2.00000
    331       7.8904      2.00000
    332       7.9836      2.00000
    333       8.0491      2.00000
    334       8.0836      2.00000
    335       8.1089      2.00000
    336       8.1336      2.00000
    337       8.1592      2.00000
    338       8.1950      2.00000
    339       8.2266      2.00000
    340       8.2627      2.00000
    341       8.2731      2.00000
    342       8.3017      2.00000
    343       8.3160      2.00000
    344       8.3345      2.00000
    345       8.3514      2.00000
    346       8.3750      2.00000
    347       8.3993      2.00000
    348       8.4108      2.00000
    349       8.4391      2.00000
    350       8.4548      2.00000
    351       8.4594      2.00000
    352       8.4957      2.00000
    353       8.5162      2.00000
    354       8.5293      2.00000
    355       8.5541      2.00000
    356       8.5792      2.00000
    357       8.6057      2.00000
    358       8.6145      2.00000
    359       8.6277      2.00000
    360       8.6523      2.00000
    361       8.6874      2.00000
    362       8.7040      2.00000
    363       8.7207      2.00000
    364       8.7624      2.00000
    365       8.7837      2.00000
    366       8.8056      2.00000
    367       8.8315      2.00000
    368       8.8517      2.00000
    369       8.8617      2.00000
    370       8.8917      2.00000
    371       8.9081      2.00000
    372       8.9389      2.00000
    373       8.9600      2.00000
    374       8.9855      2.00000
    375       9.0118      2.00000
    376       9.0287      2.00000
    377       9.0549      2.00000
    378       9.1113      1.99998
    379       9.1273      1.99987
    380       9.1477      1.99886
    381       9.1820      1.97760
    382       9.2254      1.70848
    383       9.2332      1.59520
    384       9.2565      1.14021
    385       9.2962      0.34302
    386       9.3085      0.19545
    387       9.3372      0.03503
    388       9.3542      0.00968
    389       9.3766      0.00128
    390       9.4112      0.00003
    391       9.4231      0.00001
    392       9.4626      0.00000
    393       9.4702      0.00000
    394       9.4983      0.00000
    395       9.5351      0.00000
    396       9.5470      0.00000
    397       9.5640      0.00000
    398       9.6032      0.00000
    399       9.6231      0.00000
    400       9.6436      0.00000
    401       9.6568      0.00000
    402       9.6725      0.00000
    403       9.6854      0.00000
    404       9.7189      0.00000
    405       9.7399      0.00000
    406       9.7523      0.00000
    407       9.7624      0.00000
    408       9.7816      0.00000
    409       9.7982      0.00000
    410       9.8251      0.00000
    411       9.8516      0.00000
    412       9.8722      0.00000
    413       9.9030      0.00000
    414       9.9320      0.00000
    415       9.9433      0.00000
    416       9.9517      0.00000
    417       9.9693      0.00000
    418       9.9751      0.00000
    419       9.9999      0.00000
    420      10.0108      0.00000
    421      10.0457      0.00000
    422      10.0643      0.00000
    423      10.0791      0.00000
    424      10.0985      0.00000
    425      10.1108      0.00000
    426      10.1272      0.00000
    427      10.1448      0.00000
    428      10.1864      0.00000
    429      10.1976      0.00000
    430      10.2111      0.00000
    431      10.2253      0.00000
    432      10.2500      0.00000
    433      10.2726      0.00000
    434      10.2840      0.00000
    435      10.3179      0.00000
    436      10.3285      0.00000
    437      10.3525      0.00000
    438      10.3846      0.00000
    439      10.4044      0.00000
    440      10.4190      0.00000
    441      10.4431      0.00000
    442      10.4663      0.00000
    443      10.4862      0.00000
    444      10.4998      0.00000
    445      10.5164      0.00000
    446      10.5437      0.00000
    447      10.5505      0.00000
    448      10.5669      0.00000
    449      10.5938      0.00000
    450      10.6284      0.00000
    451      10.6669      0.00000
    452      10.6794      0.00000
    453      10.6982      0.00000
    454      10.7141      0.00000
    455      10.7419      0.00000
    456      10.7599      0.00000
    457      10.7933      0.00000
    458      10.8133      0.00000
    459      10.8321      0.00000
    460      10.8470      0.00000
    461      10.8886      0.00000
    462      10.9124      0.00000
    463      10.9295      0.00000
    464      10.9924      0.00000

 k-point    10 :       0.5000    0.5000    0.0000
  band No.  band energies     occupation 
      1     -45.5192      2.00000
      2     -39.4666      2.00000
      3     -39.4258      2.00000
      4     -39.4099      2.00000
      5     -39.4017      2.00000
      6     -39.3972      2.00000
      7     -39.3854      2.00000
      8     -39.3753      2.00000
      9     -39.3630      2.00000
     10     -39.3581      2.00000
     11     -39.3399      2.00000
     12     -39.3372      2.00000
     13     -39.3331      2.00000
     14     -39.3311      2.00000
     15     -39.3191      2.00000
     16     -39.3050      2.00000
     17     -39.3041      2.00000
     18     -39.2960      2.00000
     19     -39.2939      2.00000
     20     -39.2907      2.00000
     21     -39.2764      2.00000
     22     -39.2737      2.00000
     23     -39.2666      2.00000
     24     -39.2606      2.00000
     25     -39.2457      2.00000
     26     -39.2422      2.00000
     27     -39.2392      2.00000
     28     -39.2388      2.00000
     29     -39.2349      2.00000
     30     -39.2317      2.00000
     31     -39.2269      2.00000
     32     -39.2160      2.00000
     33     -39.2084      2.00000
     34     -39.2038      2.00000
     35     -39.1970      2.00000
     36     -39.1904      2.00000
     37     -39.1811      2.00000
     38     -39.1721      2.00000
     39     -39.1648      2.00000
     40     -39.1532      2.00000
     41     -39.1514      2.00000
     42     -39.1486      2.00000
     43     -39.1472      2.00000
     44     -39.1343      2.00000
     45     -39.1296      2.00000
     46     -39.1227      2.00000
     47     -39.1150      2.00000
     48     -39.1084      2.00000
     49     -39.1050      2.00000
     50     -39.1017      2.00000
     51     -39.0983      2.00000
     52     -39.0942      2.00000
     53     -39.0831      2.00000
     54     -39.0701      2.00000
     55     -39.0637      2.00000
     56     -39.0608      2.00000
     57     -39.0303      2.00000
     58     -39.0251      2.00000
     59     -39.0213      2.00000
     60     -39.0197      2.00000
     61     -39.0146      2.00000
     62     -38.9512      2.00000
     63     -38.9138      2.00000
     64     -38.9131      2.00000
     65     -21.6081      2.00000
     66     -21.5850      2.00000
     67     -21.5569      2.00000
     68     -18.0352      2.00000
     69     -17.9804      2.00000
     70     -17.9771      2.00000
     71     -17.9671      2.00000
     72     -17.9560      2.00000
     73     -17.9478      2.00000
     74     -17.9390      2.00000
     75     -17.9258      2.00000
     76     -17.9238      2.00000
     77     -17.9012      2.00000
     78     -17.8992      2.00000
     79     -17.8949      2.00000
     80     -17.8827      2.00000
     81     -17.8711      2.00000
     82     -17.8627      2.00000
     83     -17.8569      2.00000
     84     -17.8434      2.00000
     85     -17.8347      2.00000
     86     -17.8325      2.00000
     87     -17.8310      2.00000
     88     -17.8171      2.00000
     89     -17.8106      2.00000
     90     -17.8067      2.00000
     91     -17.7987      2.00000
     92     -17.7815      2.00000
     93     -17.7740      2.00000
     94     -17.7660      2.00000
     95     -17.7568      2.00000
     96     -17.7558      2.00000
     97     -17.7484      2.00000
     98     -17.7420      2.00000
     99     -17.7377      2.00000
    100     -17.7345      2.00000
    101     -17.7272      2.00000
    102     -17.7217      2.00000
    103     -17.7176      2.00000
    104     -17.6946      2.00000
    105     -17.6898      2.00000
    106     -17.6839      2.00000
    107     -17.6808      2.00000
    108     -17.6679      2.00000
    109     -17.6568      2.00000
    110     -17.6464      2.00000
    111     -17.6327      2.00000
    112     -17.6248      2.00000
    113     -17.6150      2.00000
    114     -17.6101      2.00000
    115     -17.6042      2.00000
    116     -17.6026      2.00000
    117     -17.5918      2.00000
    118     -17.5866      2.00000
    119     -17.5770      2.00000
    120     -17.5724      2.00000
    121     -17.5687      2.00000
    122     -17.5587      2.00000
    123     -17.5471      2.00000
    124     -17.5414      2.00000
    125     -17.5354      2.00000
    126     -17.5247      2.00000
    127     -17.5233      2.00000
    128     -17.5098      2.00000
    129     -17.4994      2.00000
    130     -17.4869      2.00000
    131     -17.4794      2.00000
    132     -17.4767      2.00000
    133     -17.4736      2.00000
    134     -17.4646      2.00000
    135     -17.4525      2.00000
    136     -17.4459      2.00000
    137     -17.4413      2.00000
    138     -17.4329      2.00000
    139     -17.4209      2.00000
    140     -17.4152      2.00000
    141     -17.4140      2.00000
    142     -17.3972      2.00000
    143     -17.3880      2.00000
    144     -17.3793      2.00000
    145     -17.3717      2.00000
    146     -17.3562      2.00000
    147     -17.3452      2.00000
    148     -17.3375      2.00000
    149     -17.3288      2.00000
    150     -17.3255      2.00000
    151     -17.3156      2.00000
    152     -17.3098      2.00000
    153     -17.3044      2.00000
    154     -17.2944      2.00000
    155     -17.2837      2.00000
    156     -17.2803      2.00000
    157     -17.2758      2.00000
    158     -17.2659      2.00000
    159     -17.2606      2.00000
    160     -17.2521      2.00000
    161     -17.2469      2.00000
    162     -17.2421      2.00000
    163     -17.2361      2.00000
    164     -17.2302      2.00000
    165     -17.2232      2.00000
    166     -17.2174      2.00000
    167     -17.2110      2.00000
    168     -17.2018      2.00000
    169     -17.1925      2.00000
    170     -17.1888      2.00000
    171     -17.1825      2.00000
    172     -17.1700      2.00000
    173     -17.1666      2.00000
    174     -17.1643      2.00000
    175     -17.1538      2.00000
    176     -17.1504      2.00000
    177     -17.1494      2.00000
    178     -17.1439      2.00000
    179     -17.1370      2.00000
    180     -17.1315      2.00000
    181     -17.1189      2.00000
    182     -17.1180      2.00000
    183     -17.1138      2.00000
    184     -17.1028      2.00000
    185     -17.0990      2.00000
    186     -17.0984      2.00000
    187     -17.0912      2.00000
    188     -17.0850      2.00000
    189     -17.0818      2.00000
    190     -17.0782      2.00000
    191     -17.0741      2.00000
    192     -17.0733      2.00000
    193     -17.0659      2.00000
    194     -17.0615      2.00000
    195     -17.0544      2.00000
    196     -17.0512      2.00000
    197     -17.0450      2.00000
    198     -17.0420      2.00000
    199     -17.0349      2.00000
    200     -17.0309      2.00000
    201     -17.0300      2.00000
    202     -17.0192      2.00000
    203     -17.0172      2.00000
    204     -17.0129      2.00000
    205     -17.0064      2.00000
    206     -16.9976      2.00000
    207     -16.9939      2.00000
    208     -16.9913      2.00000
    209     -16.9860      2.00000
    210     -16.9804      2.00000
    211     -16.9766      2.00000
    212     -16.9691      2.00000
    213     -16.9689      2.00000
    214     -16.9648      2.00000
    215     -16.9621      2.00000
    216     -16.9589      2.00000
    217     -16.9495      2.00000
    218     -16.9437      2.00000
    219     -16.9346      2.00000
    220     -16.9324      2.00000
    221     -16.9295      2.00000
    222     -16.9249      2.00000
    223     -16.9185      2.00000
    224     -16.9165      2.00000
    225     -16.9075      2.00000
    226     -16.9051      2.00000
    227     -16.8960      2.00000
    228     -16.8883      2.00000
    229     -16.8840      2.00000
    230     -16.8814      2.00000
    231     -16.8785      2.00000
    232     -16.8607      2.00000
    233     -16.8593      2.00000
    234     -16.8570      2.00000
    235     -16.8492      2.00000
    236     -16.8455      2.00000
    237     -16.8431      2.00000
    238     -16.8305      2.00000
    239     -16.8249      2.00000
    240     -16.8181      2.00000
    241     -16.8124      2.00000
    242     -16.8062      2.00000
    243     -16.7973      2.00000
    244     -16.7846      2.00000
    245     -16.7756      2.00000
    246     -16.7735      2.00000
    247     -16.7594      2.00000
    248     -16.7521      2.00000
    249     -16.7464      2.00000
    250     -16.7302      2.00000
    251     -16.7111      2.00000
    252     -16.7031      2.00000
    253     -16.6940      2.00000
    254     -16.6673      2.00000
    255     -16.6511      2.00000
    256     -16.6453      2.00000
    257       4.4454      2.00000
    258       4.4777      2.00000
    259       4.4950      2.00000
    260       4.5105      2.00000
    261       6.0083      2.00000
    262       6.0101      2.00000
    263       6.0375      2.00000
    264       6.0413      2.00000
    265       6.0637      2.00000
    266       6.1040      2.00000
    267       6.1049      2.00000
    268       6.1104      2.00000
    269       6.1947      2.00000
    270       6.2286      2.00000
    271       6.2490      2.00000
    272       6.2719      2.00000
    273       6.5030      2.00000
    274       6.5236      2.00000
    275       6.5307      2.00000
    276       6.5494      2.00000
    277       6.5684      2.00000
    278       6.5861      2.00000
    279       6.5997      2.00000
    280       6.6313      2.00000
    281       6.6344      2.00000
    282       6.6439      2.00000
    283       6.6761      2.00000
    284       6.6892      2.00000
    285       6.7067      2.00000
    286       6.7154      2.00000
    287       6.7506      2.00000
    288       6.7569      2.00000
    289       6.7615      2.00000
    290       6.7893      2.00000
    291       6.7966      2.00000
    292       6.8172      2.00000
    293       6.8625      2.00000
    294       6.8750      2.00000
    295       6.8850      2.00000
    296       6.9143      2.00000
    297       6.9400      2.00000
    298       6.9512      2.00000
    299       6.9672      2.00000
    300       6.9840      2.00000
    301       7.0036      2.00000
    302       7.0224      2.00000
    303       7.0583      2.00000
    304       7.0625      2.00000
    305       7.0748      2.00000
    306       7.1169      2.00000
    307       7.1388      2.00000
    308       7.1540      2.00000
    309       7.1695      2.00000
    310       7.1877      2.00000
    311       7.1990      2.00000
    312       7.2443      2.00000
    313       7.2823      2.00000
    314       7.3158      2.00000
    315       7.3531      2.00000
    316       7.3635      2.00000
    317       7.3727      2.00000
    318       7.3996      2.00000
    319       7.4273      2.00000
    320       7.4377      2.00000
    321       7.4499      2.00000
    322       7.4758      2.00000
    323       7.4964      2.00000
    324       7.5245      2.00000
    325       7.5420      2.00000
    326       7.5680      2.00000
    327       7.5860      2.00000
    328       7.6184      2.00000
    329       7.6380      2.00000
    330       7.6788      2.00000
    331       7.7764      2.00000
    332       7.8165      2.00000
    333       8.0658      2.00000
    334       8.0867      2.00000
    335       8.1486      2.00000
    336       8.1769      2.00000
    337       8.1995      2.00000
    338       8.2199      2.00000
    339       8.2448      2.00000
    340       8.2663      2.00000
    341       8.3019      2.00000
    342       8.3076      2.00000
    343       8.3445      2.00000
    344       8.3671      2.00000
    345       8.3811      2.00000
    346       8.4064      2.00000
    347       8.4236      2.00000
    348       8.4375      2.00000
    349       8.4536      2.00000
    350       8.4765      2.00000
    351       8.4996      2.00000
    352       8.5268      2.00000
    353       8.5329      2.00000
    354       8.5349      2.00000
    355       8.5686      2.00000
    356       8.5944      2.00000
    357       8.6189      2.00000
    358       8.6214      2.00000
    359       8.6415      2.00000
    360       8.6749      2.00000
    361       8.7028      2.00000
    362       8.7064      2.00000
    363       8.7322      2.00000
    364       8.7632      2.00000
    365       8.7772      2.00000
    366       8.7808      2.00000
    367       8.8432      2.00000
    368       8.8678      2.00000
    369       8.8783      2.00000
    370       8.9068      2.00000
    371       8.9416      2.00000
    372       8.9745      2.00000
    373       9.0015      2.00000
    374       9.0186      2.00000
    375       9.0534      2.00000
    376       9.0797      2.00000
    377       9.0986      2.00000
    378       9.1300      1.99983
    379       9.1474      1.99890
    380       9.1875      1.96659
    381       9.1895      1.96146
    382       9.2293      1.65531
    383       9.2542      1.18934
    384       9.2875      0.48336
    385       9.3001      0.29011
    386       9.3396      0.02971
    387       9.3541      0.00976
    388       9.3658      0.00354
    389       9.3736      0.00170
    390       9.4201      0.00001
    391       9.4397      0.00000
    392       9.4708      0.00000
    393       9.4935      0.00000
    394       9.5376      0.00000
    395       9.5471      0.00000
    396       9.5765      0.00000
    397       9.5822      0.00000
    398       9.5936      0.00000
    399       9.6118      0.00000
    400       9.6243      0.00000
    401       9.6620      0.00000
    402       9.6705      0.00000
    403       9.6815      0.00000
    404       9.6928      0.00000
    405       9.7154      0.00000
    406       9.7484      0.00000
    407       9.7564      0.00000
    408       9.7951      0.00000
    409       9.7977      0.00000
    410       9.8174      0.00000
    411       9.8611      0.00000
    412       9.8694      0.00000
    413       9.8980      0.00000
    414       9.9052      0.00000
    415       9.9278      0.00000
    416       9.9405      0.00000
    417       9.9683      0.00000
    418       9.9705      0.00000
    419       9.9933      0.00000
    420      10.0182      0.00000
    421      10.0447      0.00000
    422      10.0564      0.00000
    423      10.0832      0.00000
    424      10.0946      0.00000
    425      10.1175      0.00000
    426      10.1358      0.00000
    427      10.1438      0.00000
    428      10.1464      0.00000
    429      10.1744      0.00000
    430      10.1976      0.00000
    431      10.2047      0.00000
    432      10.2272      0.00000
    433      10.2505      0.00000
    434      10.2701      0.00000
    435      10.2801      0.00000
    436      10.2892      0.00000
    437      10.3073      0.00000
    438      10.3501      0.00000
    439      10.3738      0.00000
    440      10.3914      0.00000
    441      10.4370      0.00000
    442      10.4467      0.00000
    443      10.4615      0.00000
    444      10.4816      0.00000
    445      10.5076      0.00000
    446      10.5285      0.00000
    447      10.5591      0.00000
    448      10.5653      0.00000
    449      10.5900      0.00000
    450      10.6213      0.00000
    451      10.6575      0.00000
    452      10.6743      0.00000
    453      10.6857      0.00000
    454      10.7119      0.00000
    455      10.7229      0.00000
    456      10.7354      0.00000
    457      10.7947      0.00000
    458      10.8036      0.00000
    459      10.8557      0.00000
    460      10.8735      0.00000
    461      10.8877      0.00000
    462      10.9108      0.00000
    463      10.9414      0.00000
    464      10.9793      0.00000

 k-point    11 :       0.0000    0.0000    0.2000
  band No.  band energies     occupation 
      1     -45.5192      2.00000
      2     -39.4676      2.00000
      3     -39.4269      2.00000
      4     -39.4101      2.00000
      5     -39.3972      2.00000
      6     -39.3956      2.00000
      7     -39.3864      2.00000
      8     -39.3756      2.00000
      9     -39.3624      2.00000
     10     -39.3576      2.00000
     11     -39.3426      2.00000
     12     -39.3386      2.00000
     13     -39.3342      2.00000
     14     -39.3278      2.00000
     15     -39.3172      2.00000
     16     -39.3111      2.00000
     17     -39.3036      2.00000
     18     -39.2956      2.00000
     19     -39.2935      2.00000
     20     -39.2895      2.00000
     21     -39.2766      2.00000
     22     -39.2749      2.00000
     23     -39.2652      2.00000
     24     -39.2588      2.00000
     25     -39.2522      2.00000
     26     -39.2431      2.00000
     27     -39.2405      2.00000
     28     -39.2368      2.00000
     29     -39.2336      2.00000
     30     -39.2279      2.00000
     31     -39.2259      2.00000
     32     -39.2163      2.00000
     33     -39.2125      2.00000
     34     -39.2049      2.00000
     35     -39.1962      2.00000
     36     -39.1901      2.00000
     37     -39.1796      2.00000
     38     -39.1740      2.00000
     39     -39.1645      2.00000
     40     -39.1550      2.00000
     41     -39.1493      2.00000
     42     -39.1478      2.00000
     43     -39.1453      2.00000
     44     -39.1352      2.00000
     45     -39.1291      2.00000
     46     -39.1226      2.00000
     47     -39.1141      2.00000
     48     -39.1089      2.00000
     49     -39.1051      2.00000
     50     -39.1009      2.00000
     51     -39.0964      2.00000
     52     -39.0955      2.00000
     53     -39.0825      2.00000
     54     -39.0708      2.00000
     55     -39.0636      2.00000
     56     -39.0609      2.00000
     57     -39.0310      2.00000
     58     -39.0253      2.00000
     59     -39.0217      2.00000
     60     -39.0196      2.00000
     61     -39.0149      2.00000
     62     -38.9513      2.00000
     63     -38.9136      2.00000
     64     -38.9132      2.00000
     65     -21.6081      2.00000
     66     -21.5850      2.00000
     67     -21.5569      2.00000
     68     -18.0451      2.00000
     69     -18.0111      2.00000
     70     -17.9921      2.00000
     71     -17.9846      2.00000
     72     -17.9679      2.00000
     73     -17.9547      2.00000
     74     -17.9405      2.00000
     75     -17.9348      2.00000
     76     -17.9225      2.00000
     77     -17.9113      2.00000
     78     -17.9047      2.00000
     79     -17.8942      2.00000
     80     -17.8789      2.00000
     81     -17.8713      2.00000
     82     -17.8697      2.00000
     83     -17.8517      2.00000
     84     -17.8467      2.00000
     85     -17.8403      2.00000
     86     -17.8283      2.00000
     87     -17.8141      2.00000
     88     -17.8110      2.00000
     89     -17.7942      2.00000
     90     -17.7896      2.00000
     91     -17.7790      2.00000
     92     -17.7749      2.00000
     93     -17.7698      2.00000
     94     -17.7641      2.00000
     95     -17.7556      2.00000
     96     -17.7505      2.00000
     97     -17.7417      2.00000
     98     -17.7382      2.00000
     99     -17.7282      2.00000
    100     -17.7193      2.00000
    101     -17.7146      2.00000
    102     -17.7074      2.00000
    103     -17.7024      2.00000
    104     -17.6910      2.00000
    105     -17.6853      2.00000
    106     -17.6829      2.00000
    107     -17.6696      2.00000
    108     -17.6614      2.00000
    109     -17.6536      2.00000
    110     -17.6484      2.00000
    111     -17.6333      2.00000
    112     -17.6314      2.00000
    113     -17.6231      2.00000
    114     -17.6141      2.00000
    115     -17.6053      2.00000
    116     -17.6029      2.00000
    117     -17.5977      2.00000
    118     -17.5874      2.00000
    119     -17.5812      2.00000
    120     -17.5734      2.00000
    121     -17.5594      2.00000
    122     -17.5503      2.00000
    123     -17.5430      2.00000
    124     -17.5355      2.00000
    125     -17.5230      2.00000
    126     -17.5205      2.00000
    127     -17.5125      2.00000
    128     -17.5019      2.00000
    129     -17.4960      2.00000
    130     -17.4886      2.00000
    131     -17.4805      2.00000
    132     -17.4780      2.00000
    133     -17.4638      2.00000
    134     -17.4516      2.00000
    135     -17.4470      2.00000
    136     -17.4432      2.00000
    137     -17.4362      2.00000
    138     -17.4261      2.00000
    139     -17.4130      2.00000
    140     -17.4117      2.00000
    141     -17.4018      2.00000
    142     -17.3904      2.00000
    143     -17.3848      2.00000
    144     -17.3757      2.00000
    145     -17.3699      2.00000
    146     -17.3607      2.00000
    147     -17.3546      2.00000
    148     -17.3452      2.00000
    149     -17.3363      2.00000
    150     -17.3319      2.00000
    151     -17.3267      2.00000
    152     -17.3202      2.00000
    153     -17.3118      2.00000
    154     -17.3054      2.00000
    155     -17.3015      2.00000
    156     -17.2909      2.00000
    157     -17.2823      2.00000
    158     -17.2776      2.00000
    159     -17.2720      2.00000
    160     -17.2618      2.00000
    161     -17.2551      2.00000
    162     -17.2497      2.00000
    163     -17.2419      2.00000
    164     -17.2347      2.00000
    165     -17.2288      2.00000
    166     -17.2185      2.00000
    167     -17.2128      2.00000
    168     -17.2060      2.00000
    169     -17.1976      2.00000
    170     -17.1910      2.00000
    171     -17.1865      2.00000
    172     -17.1805      2.00000
    173     -17.1727      2.00000
    174     -17.1640      2.00000
    175     -17.1583      2.00000
    176     -17.1533      2.00000
    177     -17.1508      2.00000
    178     -17.1468      2.00000
    179     -17.1444      2.00000
    180     -17.1388      2.00000
    181     -17.1320      2.00000
    182     -17.1257      2.00000
    183     -17.1185      2.00000
    184     -17.1123      2.00000
    185     -17.1081      2.00000
    186     -17.1044      2.00000
    187     -17.0983      2.00000
    188     -17.0960      2.00000
    189     -17.0853      2.00000
    190     -17.0847      2.00000
    191     -17.0762      2.00000
    192     -17.0689      2.00000
    193     -17.0654      2.00000
    194     -17.0644      2.00000
    195     -17.0600      2.00000
    196     -17.0563      2.00000
    197     -17.0466      2.00000
    198     -17.0424      2.00000
    199     -17.0328      2.00000
    200     -17.0290      2.00000
    201     -17.0263      2.00000
    202     -17.0242      2.00000
    203     -17.0179      2.00000
    204     -17.0105      2.00000
    205     -17.0054      2.00000
    206     -17.0026      2.00000
    207     -16.9944      2.00000
    208     -16.9870      2.00000
    209     -16.9835      2.00000
    210     -16.9806      2.00000
    211     -16.9726      2.00000
    212     -16.9666      2.00000
    213     -16.9629      2.00000
    214     -16.9557      2.00000
    215     -16.9540      2.00000
    216     -16.9495      2.00000
    217     -16.9418      2.00000
    218     -16.9379      2.00000
    219     -16.9346      2.00000
    220     -16.9325      2.00000
    221     -16.9282      2.00000
    222     -16.9219      2.00000
    223     -16.9173      2.00000
    224     -16.9080      2.00000
    225     -16.9056      2.00000
    226     -16.9020      2.00000
    227     -16.8991      2.00000
    228     -16.8951      2.00000
    229     -16.8814      2.00000
    230     -16.8759      2.00000
    231     -16.8693      2.00000
    232     -16.8649      2.00000
    233     -16.8629      2.00000
    234     -16.8514      2.00000
    235     -16.8462      2.00000
    236     -16.8420      2.00000
    237     -16.8375      2.00000
    238     -16.8297      2.00000
    239     -16.8212      2.00000
    240     -16.8149      2.00000
    241     -16.8130      2.00000
    242     -16.8056      2.00000
    243     -16.7938      2.00000
    244     -16.7834      2.00000
    245     -16.7715      2.00000
    246     -16.7612      2.00000
    247     -16.7588      2.00000
    248     -16.7541      2.00000
    249     -16.7432      2.00000
    250     -16.7290      2.00000
    251     -16.7127      2.00000
    252     -16.7080      2.00000
    253     -16.6997      2.00000
    254     -16.6592      2.00000
    255     -16.6484      2.00000
    256     -16.6385      2.00000
    257       3.8050      2.00000
    258       4.9341      2.00000
    259       5.0249      2.00000
    260       5.0469      2.00000
    261       5.3504      2.00000
    262       5.3545      2.00000
    263       5.8565      2.00000
    264       5.9226      2.00000
    265       5.9529      2.00000
    266       6.0656      2.00000
    267       6.0872      2.00000
    268       6.1806      2.00000
    269       6.1898      2.00000
    270       6.1992      2.00000
    271       6.2268      2.00000
    272       6.2445      2.00000
    273       6.2570      2.00000
    274       6.2819      2.00000
    275       6.2994      2.00000
    276       6.4690      2.00000
    277       6.5077      2.00000
    278       6.5186      2.00000
    279       6.5395      2.00000
    280       6.5484      2.00000
    281       6.5708      2.00000
    282       6.5909      2.00000
    283       6.6061      2.00000
    284       6.6280      2.00000
    285       6.6536      2.00000
    286       6.6914      2.00000
    287       6.7135      2.00000
    288       6.7333      2.00000
    289       6.8104      2.00000
    290       6.8280      2.00000
    291       6.8528      2.00000
    292       6.9037      2.00000
    293       6.9465      2.00000
    294       6.9863      2.00000
    295       7.0164      2.00000
    296       7.0304      2.00000
    297       7.0597      2.00000
    298       7.0758      2.00000
    299       7.0859      2.00000
    300       7.1176      2.00000
    301       7.1504      2.00000
    302       7.1607      2.00000
    303       7.1841      2.00000
    304       7.2198      2.00000
    305       7.2350      2.00000
    306       7.2739      2.00000
    307       7.2863      2.00000
    308       7.3045      2.00000
    309       7.3156      2.00000
    310       7.3326      2.00000
    311       7.3435      2.00000
    312       7.3924      2.00000
    313       7.4179      2.00000
    314       7.4337      2.00000
    315       7.4641      2.00000
    316       7.4814      2.00000
    317       7.5238      2.00000
    318       7.5571      2.00000
    319       7.6043      2.00000
    320       7.6203      2.00000
    321       7.6676      2.00000
    322       7.7016      2.00000
    323       7.7191      2.00000
    324       7.7536      2.00000
    325       7.7813      2.00000
    326       7.7899      2.00000
    327       7.8240      2.00000
    328       7.8493      2.00000
    329       7.8713      2.00000
    330       7.8924      2.00000
    331       7.8995      2.00000
    332       7.9409      2.00000
    333       7.9774      2.00000
    334       7.9939      2.00000
    335       8.0248      2.00000
    336       8.0481      2.00000
    337       8.0774      2.00000
    338       8.1135      2.00000
    339       8.1350      2.00000
    340       8.1450      2.00000
    341       8.1851      2.00000
    342       8.2010      2.00000
    343       8.2175      2.00000
    344       8.2292      2.00000
    345       8.2574      2.00000
    346       8.2733      2.00000
    347       8.3062      2.00000
    348       8.3441      2.00000
    349       8.3511      2.00000
    350       8.3600      2.00000
    351       8.3882      2.00000
    352       8.4004      2.00000
    353       8.4173      2.00000
    354       8.4651      2.00000
    355       8.4718      2.00000
    356       8.4964      2.00000
    357       8.5141      2.00000
    358       8.5372      2.00000
    359       8.5625      2.00000
    360       8.5974      2.00000
    361       8.6126      2.00000
    362       8.6290      2.00000
    363       8.6492      2.00000
    364       8.6836      2.00000
    365       8.6963      2.00000
    366       8.7368      2.00000
    367       8.7534      2.00000
    368       8.7678      2.00000
    369       8.7910      2.00000
    370       8.8126      2.00000
    371       8.8372      2.00000
    372       8.8600      2.00000
    373       8.8756      2.00000
    374       8.9334      2.00000
    375       8.9483      2.00000
    376       8.9530      2.00000
    377       9.0071      2.00000
    378       9.0328      2.00000
    379       9.0697      2.00000
    380       9.0824      2.00000
    381       9.1197      1.99995
    382       9.1272      1.99987
    383       9.1786      1.98266
    384       9.1932      1.95055
    385       9.2342      1.58037
    386       9.2492      1.29720
    387       9.2782      0.66043
    388       9.3067      0.21372
    389       9.3182      0.11662
    390       9.3391      0.03071
    391       9.3526      0.01103
    392       9.3905      0.00030
    393       9.4222      0.00001
    394       9.4350      0.00000
    395       9.4497      0.00000
    396       9.4914      0.00000
    397       9.4996      0.00000
    398       9.5258      0.00000
    399       9.5492      0.00000
    400       9.5671      0.00000
    401       9.5983      0.00000
    402       9.6207      0.00000
    403       9.6506      0.00000
    404       9.6573      0.00000
    405       9.6833      0.00000
    406       9.6994      0.00000
    407       9.7092      0.00000
    408       9.7250      0.00000
    409       9.7589      0.00000
    410       9.7947      0.00000
    411       9.8223      0.00000
    412       9.8373      0.00000
    413       9.8777      0.00000
    414       9.8921      0.00000
    415       9.9016      0.00000
    416       9.9399      0.00000
    417       9.9420      0.00000
    418       9.9688      0.00000
    419       9.9859      0.00000
    420      10.0158      0.00000
    421      10.0360      0.00000
    422      10.0644      0.00000
    423      10.0789      0.00000
    424      10.0913      0.00000
    425      10.1197      0.00000
    426      10.1309      0.00000
    427      10.1596      0.00000
    428      10.1778      0.00000
    429      10.1940      0.00000
    430      10.2189      0.00000
    431      10.2308      0.00000
    432      10.2421      0.00000
    433      10.2758      0.00000
    434      10.2891      0.00000
    435      10.3196      0.00000
    436      10.3376      0.00000
    437      10.3717      0.00000
    438      10.3989      0.00000
    439      10.4178      0.00000
    440      10.4294      0.00000
    441      10.4589      0.00000
    442      10.4846      0.00000
    443      10.5117      0.00000
    444      10.5629      0.00000
    445      10.5729      0.00000
    446      10.5939      0.00000
    447      10.6417      0.00000
    448      10.6577      0.00000
    449      10.6855      0.00000
    450      10.6978      0.00000
    451      10.7228      0.00000
    452      10.7473      0.00000
    453      10.7687      0.00000
    454      10.7967      0.00000
    455      10.8256      0.00000
    456      10.8457      0.00000
    457      10.8597      0.00000
    458      10.8884      0.00000
    459      10.9239      0.00000
    460      10.9620      0.00000
    461      10.9703      0.00000
    462      10.9856      0.00000
    463      11.0263      0.00000
    464      11.0575      0.00000

 k-point    12 :       0.2500    0.0000    0.2000
  band No.  band energies     occupation 
      1     -45.5192      2.00000
      2     -39.4674      2.00000
      3     -39.4261      2.00000
      4     -39.4114      2.00000
      5     -39.3971      2.00000
      6     -39.3964      2.00000
      7     -39.3861      2.00000
      8     -39.3753      2.00000
      9     -39.3629      2.00000
     10     -39.3568      2.00000
     11     -39.3423      2.00000
     12     -39.3383      2.00000
     13     -39.3342      2.00000
     14     -39.3281      2.00000
     15     -39.3176      2.00000
     16     -39.3106      2.00000
     17     -39.3037      2.00000
     18     -39.2951      2.00000
     19     -39.2942      2.00000
     20     -39.2892      2.00000
     21     -39.2767      2.00000
     22     -39.2754      2.00000
     23     -39.2653      2.00000
     24     -39.2588      2.00000
     25     -39.2516      2.00000
     26     -39.2423      2.00000
     27     -39.2406      2.00000
     28     -39.2367      2.00000
     29     -39.2326      2.00000
     30     -39.2293      2.00000
     31     -39.2252      2.00000
     32     -39.2173      2.00000
     33     -39.2124      2.00000
     34     -39.2050      2.00000
     35     -39.1969      2.00000
     36     -39.1891      2.00000
     37     -39.1811      2.00000
     38     -39.1726      2.00000
     39     -39.1645      2.00000
     40     -39.1551      2.00000
     41     -39.1503      2.00000
     42     -39.1477      2.00000
     43     -39.1451      2.00000
     44     -39.1356      2.00000
     45     -39.1284      2.00000
     46     -39.1228      2.00000
     47     -39.1141      2.00000
     48     -39.1082      2.00000
     49     -39.1049      2.00000
     50     -39.1018      2.00000
     51     -39.0975      2.00000
     52     -39.0944      2.00000
     53     -39.0826      2.00000
     54     -39.0706      2.00000
     55     -39.0636      2.00000
     56     -39.0610      2.00000
     57     -39.0310      2.00000
     58     -39.0253      2.00000
     59     -39.0216      2.00000
     60     -39.0198      2.00000
     61     -39.0149      2.00000
     62     -38.9513      2.00000
     63     -38.9137      2.00000
     64     -38.9132      2.00000
     65     -21.6081      2.00000
     66     -21.5850      2.00000
     67     -21.5569      2.00000
     68     -18.0423      2.00000
     69     -18.0064      2.00000
     70     -17.9859      2.00000
     71     -17.9755      2.00000
     72     -17.9695      2.00000
     73     -17.9528      2.00000
     74     -17.9444      2.00000
     75     -17.9352      2.00000
     76     -17.9211      2.00000
     77     -17.9119      2.00000
     78     -17.9046      2.00000
     79     -17.8867      2.00000
     80     -17.8830      2.00000
     81     -17.8698      2.00000
     82     -17.8648      2.00000
     83     -17.8528      2.00000
     84     -17.8482      2.00000
     85     -17.8357      2.00000
     86     -17.8285      2.00000
     87     -17.8199      2.00000
     88     -17.8127      2.00000
     89     -17.8044      2.00000
     90     -17.7954      2.00000
     91     -17.7874      2.00000
     92     -17.7787      2.00000
     93     -17.7739      2.00000
     94     -17.7650      2.00000
     95     -17.7585      2.00000
     96     -17.7460      2.00000
     97     -17.7419      2.00000
     98     -17.7379      2.00000
     99     -17.7306      2.00000
    100     -17.7249      2.00000
    101     -17.7083      2.00000
    102     -17.7064      2.00000
    103     -17.6989      2.00000
    104     -17.6889      2.00000
    105     -17.6871      2.00000
    106     -17.6782      2.00000
    107     -17.6728      2.00000
    108     -17.6670      2.00000
    109     -17.6546      2.00000
    110     -17.6416      2.00000
    111     -17.6323      2.00000
    112     -17.6269      2.00000
    113     -17.6194      2.00000
    114     -17.6126      2.00000
    115     -17.6091      2.00000
    116     -17.6055      2.00000
    117     -17.5956      2.00000
    118     -17.5908      2.00000
    119     -17.5811      2.00000
    120     -17.5754      2.00000
    121     -17.5600      2.00000
    122     -17.5547      2.00000
    123     -17.5460      2.00000
    124     -17.5440      2.00000
    125     -17.5297      2.00000
    126     -17.5193      2.00000
    127     -17.5131      2.00000
    128     -17.5082      2.00000
    129     -17.5060      2.00000
    130     -17.4918      2.00000
    131     -17.4799      2.00000
    132     -17.4758      2.00000
    133     -17.4615      2.00000
    134     -17.4574      2.00000
    135     -17.4489      2.00000
    136     -17.4392      2.00000
    137     -17.4304      2.00000
    138     -17.4237      2.00000
    139     -17.4158      2.00000
    140     -17.4101      2.00000
    141     -17.4023      2.00000
    142     -17.3889      2.00000
    143     -17.3855      2.00000
    144     -17.3770      2.00000
    145     -17.3716      2.00000
    146     -17.3609      2.00000
    147     -17.3575      2.00000
    148     -17.3480      2.00000
    149     -17.3359      2.00000
    150     -17.3330      2.00000
    151     -17.3250      2.00000
    152     -17.3152      2.00000
    153     -17.3107      2.00000
    154     -17.3076      2.00000
    155     -17.3000      2.00000
    156     -17.2908      2.00000
    157     -17.2798      2.00000
    158     -17.2752      2.00000
    159     -17.2667      2.00000
    160     -17.2582      2.00000
    161     -17.2506      2.00000
    162     -17.2456      2.00000
    163     -17.2380      2.00000
    164     -17.2344      2.00000
    165     -17.2269      2.00000
    166     -17.2173      2.00000
    167     -17.2091      2.00000
    168     -17.2019      2.00000
    169     -17.1971      2.00000
    170     -17.1892      2.00000
    171     -17.1830      2.00000
    172     -17.1799      2.00000
    173     -17.1704      2.00000
    174     -17.1659      2.00000
    175     -17.1579      2.00000
    176     -17.1542      2.00000
    177     -17.1526      2.00000
    178     -17.1456      2.00000
    179     -17.1385      2.00000
    180     -17.1366      2.00000
    181     -17.1309      2.00000
    182     -17.1229      2.00000
    183     -17.1180      2.00000
    184     -17.1128      2.00000
    185     -17.1075      2.00000
    186     -17.1007      2.00000
    187     -17.0985      2.00000
    188     -17.0941      2.00000
    189     -17.0896      2.00000
    190     -17.0854      2.00000
    191     -17.0777      2.00000
    192     -17.0731      2.00000
    193     -17.0678      2.00000
    194     -17.0632      2.00000
    195     -17.0589      2.00000
    196     -17.0555      2.00000
    197     -17.0463      2.00000
    198     -17.0384      2.00000
    199     -17.0322      2.00000
    200     -17.0279      2.00000
    201     -17.0227      2.00000
    202     -17.0205      2.00000
    203     -17.0150      2.00000
    204     -17.0102      2.00000
    205     -17.0035      2.00000
    206     -16.9956      2.00000
    207     -16.9940      2.00000
    208     -16.9917      2.00000
    209     -16.9865      2.00000
    210     -16.9810      2.00000
    211     -16.9744      2.00000
    212     -16.9703      2.00000
    213     -16.9681      2.00000
    214     -16.9584      2.00000
    215     -16.9537      2.00000
    216     -16.9480      2.00000
    217     -16.9422      2.00000
    218     -16.9375      2.00000
    219     -16.9362      2.00000
    220     -16.9314      2.00000
    221     -16.9266      2.00000
    222     -16.9226      2.00000
    223     -16.9155      2.00000
    224     -16.9108      2.00000
    225     -16.9051      2.00000
    226     -16.9006      2.00000
    227     -16.8965      2.00000
    228     -16.8907      2.00000
    229     -16.8842      2.00000
    230     -16.8765      2.00000
    231     -16.8720      2.00000
    232     -16.8642      2.00000
    233     -16.8618      2.00000
    234     -16.8533      2.00000
    235     -16.8488      2.00000
    236     -16.8450      2.00000
    237     -16.8371      2.00000
    238     -16.8304      2.00000
    239     -16.8239      2.00000
    240     -16.8151      2.00000
    241     -16.8109      2.00000
    242     -16.8057      2.00000
    243     -16.7953      2.00000
    244     -16.7850      2.00000
    245     -16.7742      2.00000
    246     -16.7648      2.00000
    247     -16.7593      2.00000
    248     -16.7541      2.00000
    249     -16.7427      2.00000
    250     -16.7313      2.00000
    251     -16.7124      2.00000
    252     -16.7078      2.00000
    253     -16.6988      2.00000
    254     -16.6598      2.00000
    255     -16.6486      2.00000
    256     -16.6415      2.00000
    257       3.8906      2.00000
    258       4.5323      2.00000
    259       5.0116      2.00000
    260       5.4203      2.00000
    261       5.4242      2.00000
    262       5.5516      2.00000
    263       5.6148      2.00000
    264       5.9086      2.00000
    265       5.9226      2.00000
    266       5.9495      2.00000
    267       6.1297      2.00000
    268       6.1405      2.00000
    269       6.2577      2.00000
    270       6.2956      2.00000
    271       6.3033      2.00000
    272       6.3116      2.00000
    273       6.3357      2.00000
    274       6.3882      2.00000
    275       6.4260      2.00000
    276       6.4490      2.00000
    277       6.4645      2.00000
    278       6.4821      2.00000
    279       6.4999      2.00000
    280       6.5223      2.00000
    281       6.5274      2.00000
    282       6.5578      2.00000
    283       6.6003      2.00000
    284       6.6301      2.00000
    285       6.6541      2.00000
    286       6.7075      2.00000
    287       6.7355      2.00000
    288       6.7558      2.00000
    289       6.7918      2.00000
    290       6.8146      2.00000
    291       6.8327      2.00000
    292       6.8484      2.00000
    293       6.8647      2.00000
    294       6.9156      2.00000
    295       6.9267      2.00000
    296       6.9734      2.00000
    297       6.9833      2.00000
    298       7.0094      2.00000
    299       7.0336      2.00000
    300       7.0741      2.00000
    301       7.0874      2.00000
    302       7.1034      2.00000
    303       7.1386      2.00000
    304       7.1576      2.00000
    305       7.1939      2.00000
    306       7.2079      2.00000
    307       7.2463      2.00000
    308       7.2782      2.00000
    309       7.3355      2.00000
    310       7.3702      2.00000
    311       7.4054      2.00000
    312       7.4339      2.00000
    313       7.4539      2.00000
    314       7.4849      2.00000
    315       7.5058      2.00000
    316       7.5325      2.00000
    317       7.5799      2.00000
    318       7.5999      2.00000
    319       7.6432      2.00000
    320       7.6716      2.00000
    321       7.6858      2.00000
    322       7.7193      2.00000
    323       7.7340      2.00000
    324       7.7582      2.00000
    325       7.7703      2.00000
    326       7.8036      2.00000
    327       7.8661      2.00000
    328       7.8892      2.00000
    329       7.9060      2.00000
    330       7.9178      2.00000
    331       7.9576      2.00000
    332       7.9823      2.00000
    333       8.0111      2.00000
    334       8.0263      2.00000
    335       8.0345      2.00000
    336       8.0488      2.00000
    337       8.0681      2.00000
    338       8.1046      2.00000
    339       8.1250      2.00000
    340       8.1348      2.00000
    341       8.1536      2.00000
    342       8.1648      2.00000
    343       8.1929      2.00000
    344       8.2223      2.00000
    345       8.2399      2.00000
    346       8.2588      2.00000
    347       8.2807      2.00000
    348       8.2884      2.00000
    349       8.3232      2.00000
    350       8.3318      2.00000
    351       8.3533      2.00000
    352       8.3931      2.00000
    353       8.4016      2.00000
    354       8.4255      2.00000
    355       8.4575      2.00000
    356       8.4782      2.00000
    357       8.4906      2.00000
    358       8.5238      2.00000
    359       8.5367      2.00000
    360       8.5659      2.00000
    361       8.5931      2.00000
    362       8.6289      2.00000
    363       8.6365      2.00000
    364       8.6739      2.00000
    365       8.6843      2.00000
    366       8.7078      2.00000
    367       8.7400      2.00000
    368       8.7753      2.00000
    369       8.8008      2.00000
    370       8.8067      2.00000
    371       8.8372      2.00000
    372       8.8563      2.00000
    373       8.8866      2.00000
    374       8.9326      2.00000
    375       8.9482      2.00000
    376       9.0068      2.00000
    377       9.0226      2.00000
    378       9.0426      2.00000
    379       9.0800      2.00000
    380       9.0990      2.00000
    381       9.1164      1.99996
    382       9.1548      1.99773
    383       9.1745      1.98743
    384       9.2139      1.83221
    385       9.2455      1.37250
    386       9.2675      0.89261
    387       9.2953      0.35675
    388       9.3020      0.26651
    389       9.3161      0.13123
    390       9.3556      0.00856
    391       9.3714      0.00210
    392       9.3834      0.00064
    393       9.4166      0.00001
    394       9.4280      0.00000
    395       9.4551      0.00000
    396       9.4991      0.00000
    397       9.5205      0.00000
    398       9.5242      0.00000
    399       9.5423      0.00000
    400       9.5879      0.00000
    401       9.6202      0.00000
    402       9.6361      0.00000
    403       9.6422      0.00000
    404       9.6663      0.00000
    405       9.6860      0.00000
    406       9.7310      0.00000
    407       9.7635      0.00000
    408       9.7686      0.00000
    409       9.7878      0.00000
    410       9.8089      0.00000
    411       9.8302      0.00000
    412       9.8554      0.00000
    413       9.8848      0.00000
    414       9.9094      0.00000
    415       9.9241      0.00000
    416       9.9531      0.00000
    417       9.9792      0.00000
    418       9.9934      0.00000
    419      10.0094      0.00000
    420      10.0399      0.00000
    421      10.0505      0.00000
    422      10.0630      0.00000
    423      10.0835      0.00000
    424      10.1066      0.00000
    425      10.1278      0.00000
    426      10.1537      0.00000
    427      10.1668      0.00000
    428      10.1741      0.00000
    429      10.2032      0.00000
    430      10.2231      0.00000
    431      10.2365      0.00000
    432      10.2551      0.00000
    433      10.2653      0.00000
    434      10.2963      0.00000
    435      10.3231      0.00000
    436      10.3334      0.00000
    437      10.3598      0.00000
    438      10.3964      0.00000
    439      10.4091      0.00000
    440      10.4324      0.00000
    441      10.4539      0.00000
    442      10.4841      0.00000
    443      10.4924      0.00000
    444      10.5147      0.00000
    445      10.5460      0.00000
    446      10.5635      0.00000
    447      10.5899      0.00000
    448      10.6267      0.00000
    449      10.6596      0.00000
    450      10.6774      0.00000
    451      10.7188      0.00000
    452      10.7361      0.00000
    453      10.7622      0.00000
    454      10.7958      0.00000
    455      10.8098      0.00000
    456      10.8331      0.00000
    457      10.8511      0.00000
    458      10.8936      0.00000
    459      10.9133      0.00000
    460      10.9211      0.00000
    461      10.9535      0.00000
    462      10.9761      0.00000
    463      11.0110      0.00000
    464      11.0484      0.00000

 k-point    13 :      -0.2500   -0.0000    0.2000
  band No.  band energies     occupation 
      1     -45.5192      2.00000
      2     -39.4674      2.00000
      3     -39.4265      2.00000
      4     -39.4110      2.00000
      5     -39.3978      2.00000
      6     -39.3955      2.00000
      7     -39.3863      2.00000
      8     -39.3755      2.00000
      9     -39.3632      2.00000
     10     -39.3571      2.00000
     11     -39.3437      2.00000
     12     -39.3375      2.00000
     13     -39.3318      2.00000
     14     -39.3282      2.00000
     15     -39.3188      2.00000
     16     -39.3111      2.00000
     17     -39.3025      2.00000
     18     -39.2967      2.00000
     19     -39.2932      2.00000
     20     -39.2893      2.00000
     21     -39.2764      2.00000
     22     -39.2747      2.00000
     23     -39.2659      2.00000
     24     -39.2592      2.00000
     25     -39.2516      2.00000
     26     -39.2420      2.00000
     27     -39.2397      2.00000
     28     -39.2377      2.00000
     29     -39.2347      2.00000
     30     -39.2285      2.00000
     31     -39.2254      2.00000
     32     -39.2151      2.00000
     33     -39.2127      2.00000
     34     -39.2045      2.00000
     35     -39.1971      2.00000
     36     -39.1909      2.00000
     37     -39.1790      2.00000
     38     -39.1739      2.00000
     39     -39.1643      2.00000
     40     -39.1541      2.00000
     41     -39.1503      2.00000
     42     -39.1485      2.00000
     43     -39.1454      2.00000
     44     -39.1348      2.00000
     45     -39.1291      2.00000
     46     -39.1227      2.00000
     47     -39.1145      2.00000
     48     -39.1072      2.00000
     49     -39.1054      2.00000
     50     -39.1009      2.00000
     51     -39.0986      2.00000
     52     -39.0940      2.00000
     53     -39.0827      2.00000
     54     -39.0705      2.00000
     55     -39.0636      2.00000
     56     -39.0609      2.00000
     57     -39.0310      2.00000
     58     -39.0253      2.00000
     59     -39.0216      2.00000
     60     -39.0197      2.00000
     61     -39.0149      2.00000
     62     -38.9513      2.00000
     63     -38.9137      2.00000
     64     -38.9132      2.00000
     65     -21.6081      2.00000
     66     -21.5850      2.00000
     67     -21.5569      2.00000
     68     -18.0409      2.00000
     69     -18.0044      2.00000
     70     -17.9907      2.00000
     71     -17.9795      2.00000
     72     -17.9679      2.00000
     73     -17.9533      2.00000
     74     -17.9410      2.00000
     75     -17.9338      2.00000
     76     -17.9201      2.00000
     77     -17.9098      2.00000
     78     -17.9040      2.00000
     79     -17.8916      2.00000
     80     -17.8789      2.00000
     81     -17.8710      2.00000
     82     -17.8633      2.00000
     83     -17.8558      2.00000
     84     -17.8493      2.00000
     85     -17.8408      2.00000
     86     -17.8267      2.00000
     87     -17.8216      2.00000
     88     -17.8125      2.00000
     89     -17.8048      2.00000
     90     -17.7925      2.00000
     91     -17.7843      2.00000
     92     -17.7783      2.00000
     93     -17.7710      2.00000
     94     -17.7688      2.00000
     95     -17.7573      2.00000
     96     -17.7485      2.00000
     97     -17.7391      2.00000
     98     -17.7354      2.00000
     99     -17.7297      2.00000
    100     -17.7225      2.00000
    101     -17.7148      2.00000
    102     -17.7116      2.00000
    103     -17.7044      2.00000
    104     -17.6927      2.00000
    105     -17.6777      2.00000
    106     -17.6747      2.00000
    107     -17.6699      2.00000
    108     -17.6571      2.00000
    109     -17.6502      2.00000
    110     -17.6418      2.00000
    111     -17.6396      2.00000
    112     -17.6308      2.00000
    113     -17.6247      2.00000
    114     -17.6209      2.00000
    115     -17.6167      2.00000
    116     -17.6030      2.00000
    117     -17.5972      2.00000
    118     -17.5860      2.00000
    119     -17.5824      2.00000
    120     -17.5759      2.00000
    121     -17.5600      2.00000
    122     -17.5485      2.00000
    123     -17.5417      2.00000
    124     -17.5363      2.00000
    125     -17.5301      2.00000
    126     -17.5241      2.00000
    127     -17.5062      2.00000
    128     -17.5033      2.00000
    129     -17.4977      2.00000
    130     -17.4920      2.00000
    131     -17.4853      2.00000
    132     -17.4720      2.00000
    133     -17.4663      2.00000
    134     -17.4555      2.00000
    135     -17.4520      2.00000
    136     -17.4365      2.00000
    137     -17.4316      2.00000
    138     -17.4271      2.00000
    139     -17.4219      2.00000
    140     -17.4150      2.00000
    141     -17.4078      2.00000
    142     -17.3951      2.00000
    143     -17.3913      2.00000
    144     -17.3799      2.00000
    145     -17.3733      2.00000
    146     -17.3551      2.00000
    147     -17.3509      2.00000
    148     -17.3460      2.00000
    149     -17.3407      2.00000
    150     -17.3325      2.00000
    151     -17.3274      2.00000
    152     -17.3169      2.00000
    153     -17.3095      2.00000
    154     -17.2969      2.00000
    155     -17.2923      2.00000
    156     -17.2870      2.00000
    157     -17.2850      2.00000
    158     -17.2697      2.00000
    159     -17.2673      2.00000
    160     -17.2582      2.00000
    161     -17.2558      2.00000
    162     -17.2459      2.00000
    163     -17.2407      2.00000
    164     -17.2321      2.00000
    165     -17.2291      2.00000
    166     -17.2195      2.00000
    167     -17.2130      2.00000
    168     -17.2018      2.00000
    169     -17.1927      2.00000
    170     -17.1909      2.00000
    171     -17.1779      2.00000
    172     -17.1748      2.00000
    173     -17.1699      2.00000
    174     -17.1670      2.00000
    175     -17.1602      2.00000
    176     -17.1541      2.00000
    177     -17.1517      2.00000
    178     -17.1448      2.00000
    179     -17.1395      2.00000
    180     -17.1363      2.00000
    181     -17.1308      2.00000
    182     -17.1237      2.00000
    183     -17.1178      2.00000
    184     -17.1133      2.00000
    185     -17.1088      2.00000
    186     -17.1005      2.00000
    187     -17.0971      2.00000
    188     -17.0912      2.00000
    189     -17.0887      2.00000
    190     -17.0843      2.00000
    191     -17.0803      2.00000
    192     -17.0770      2.00000
    193     -17.0686      2.00000
    194     -17.0647      2.00000
    195     -17.0596      2.00000
    196     -17.0493      2.00000
    197     -17.0464      2.00000
    198     -17.0422      2.00000
    199     -17.0348      2.00000
    200     -17.0301      2.00000
    201     -17.0246      2.00000
    202     -17.0219      2.00000
    203     -17.0184      2.00000
    204     -17.0126      2.00000
    205     -17.0020      2.00000
    206     -16.9975      2.00000
    207     -16.9938      2.00000
    208     -16.9883      2.00000
    209     -16.9840      2.00000
    210     -16.9756      2.00000
    211     -16.9709      2.00000
    212     -16.9673      2.00000
    213     -16.9622      2.00000
    214     -16.9581      2.00000
    215     -16.9562      2.00000
    216     -16.9508      2.00000
    217     -16.9421      2.00000
    218     -16.9382      2.00000
    219     -16.9355      2.00000
    220     -16.9308      2.00000
    221     -16.9267      2.00000
    222     -16.9226      2.00000
    223     -16.9207      2.00000
    224     -16.9140      2.00000
    225     -16.9055      2.00000
    226     -16.9011      2.00000
    227     -16.8973      2.00000
    228     -16.8925      2.00000
    229     -16.8809      2.00000
    230     -16.8754      2.00000
    231     -16.8703      2.00000
    232     -16.8667      2.00000
    233     -16.8645      2.00000
    234     -16.8523      2.00000
    235     -16.8480      2.00000
    236     -16.8419      2.00000
    237     -16.8368      2.00000
    238     -16.8328      2.00000
    239     -16.8219      2.00000
    240     -16.8176      2.00000
    241     -16.8096      2.00000
    242     -16.8058      2.00000
    243     -16.7972      2.00000
    244     -16.7835      2.00000
    245     -16.7741      2.00000
    246     -16.7616      2.00000
    247     -16.7597      2.00000
    248     -16.7541      2.00000
    249     -16.7437      2.00000
    250     -16.7292      2.00000
    251     -16.7132      2.00000
    252     -16.7099      2.00000
    253     -16.6985      2.00000
    254     -16.6594      2.00000
    255     -16.6493      2.00000
    256     -16.6412      2.00000
    257       3.8906      2.00000
    258       4.5325      2.00000
    259       5.0119      2.00000
    260       5.4192      2.00000
    261       5.4249      2.00000
    262       5.5519      2.00000
    263       5.6129      2.00000
    264       5.9095      2.00000
    265       5.9210      2.00000
    266       5.9478      2.00000
    267       6.1315      2.00000
    268       6.1443      2.00000
    269       6.2465      2.00000
    270       6.2849      2.00000
    271       6.2994      2.00000
    272       6.3275      2.00000
    273       6.3556      2.00000
    274       6.3878      2.00000
    275       6.4220      2.00000
    276       6.4578      2.00000
    277       6.4630      2.00000
    278       6.4790      2.00000
    279       6.4906      2.00000
    280       6.4962      2.00000
    281       6.5421      2.00000
    282       6.5683      2.00000
    283       6.6201      2.00000
    284       6.6328      2.00000
    285       6.6758      2.00000
    286       6.6870      2.00000
    287       6.7113      2.00000
    288       6.7576      2.00000
    289       6.7795      2.00000
    290       6.8029      2.00000
    291       6.8252      2.00000
    292       6.8580      2.00000
    293       6.8655      2.00000
    294       6.9021      2.00000
    295       6.9273      2.00000
    296       6.9617      2.00000
    297       6.9791      2.00000
    298       7.0182      2.00000
    299       7.0443      2.00000
    300       7.0713      2.00000
    301       7.0798      2.00000
    302       7.1195      2.00000
    303       7.1484      2.00000
    304       7.1873      2.00000
    305       7.1974      2.00000
    306       7.2228      2.00000
    307       7.2393      2.00000
    308       7.2911      2.00000
    309       7.3382      2.00000
    310       7.3671      2.00000
    311       7.3881      2.00000
    312       7.4364      2.00000
    313       7.4532      2.00000
    314       7.4899      2.00000
    315       7.5006      2.00000
    316       7.5389      2.00000
    317       7.5666      2.00000
    318       7.5934      2.00000
    319       7.6274      2.00000
    320       7.6721      2.00000
    321       7.6851      2.00000
    322       7.7192      2.00000
    323       7.7361      2.00000
    324       7.7631      2.00000
    325       7.7841      2.00000
    326       7.8282      2.00000
    327       7.8576      2.00000
    328       7.8802      2.00000
    329       7.9076      2.00000
    330       7.9328      2.00000
    331       7.9472      2.00000
    332       7.9812      2.00000
    333       7.9910      2.00000
    334       8.0079      2.00000
    335       8.0246      2.00000
    336       8.0466      2.00000
    337       8.0614      2.00000
    338       8.0743      2.00000
    339       8.1180      2.00000
    340       8.1294      2.00000
    341       8.1604      2.00000
    342       8.1822      2.00000
    343       8.1972      2.00000
    344       8.2144      2.00000
    345       8.2517      2.00000
    346       8.2740      2.00000
    347       8.2946      2.00000
    348       8.3077      2.00000
    349       8.3189      2.00000
    350       8.3389      2.00000
    351       8.3557      2.00000
    352       8.3879      2.00000
    353       8.3981      2.00000
    354       8.4152      2.00000
    355       8.4422      2.00000
    356       8.4660      2.00000
    357       8.4842      2.00000
    358       8.5061      2.00000
    359       8.5488      2.00000
    360       8.5543      2.00000
    361       8.5918      2.00000
    362       8.6068      2.00000
    363       8.6437      2.00000
    364       8.6698      2.00000
    365       8.7076      2.00000
    366       8.7243      2.00000
    367       8.7468      2.00000
    368       8.7601      2.00000
    369       8.7773      2.00000
    370       8.8324      2.00000
    371       8.8634      2.00000
    372       8.8908      2.00000
    373       8.8985      2.00000
    374       8.9353      2.00000
    375       8.9508      2.00000
    376       8.9806      2.00000
    377       9.0259      2.00000
    378       9.0525      2.00000
    379       9.0837      2.00000
    380       9.1045      1.99999
    381       9.1401      1.99948
    382       9.1510      1.99842
    383       9.1973      1.93559
    384       9.2121      1.84788
    385       9.2393      1.49244
    386       9.2616      1.02496
    387       9.2645      0.96009
    388       9.2962      0.34303
    389       9.3167      0.12649
    390       9.3432      0.02280
    391       9.3734      0.00175
    392       9.3901      0.00031
    393       9.4281      0.00000
    394       9.4354      0.00000
    395       9.4629      0.00000
    396       9.5006      0.00000
    397       9.5168      0.00000
    398       9.5336      0.00000
    399       9.5618      0.00000
    400       9.5885      0.00000
    401       9.6123      0.00000
    402       9.6380      0.00000
    403       9.6456      0.00000
    404       9.6652      0.00000
    405       9.6896      0.00000
    406       9.7120      0.00000
    407       9.7337      0.00000
    408       9.7622      0.00000
    409       9.7778      0.00000
    410       9.8079      0.00000
    411       9.8351      0.00000
    412       9.8456      0.00000
    413       9.8715      0.00000
    414       9.8987      0.00000
    415       9.9147      0.00000
    416       9.9416      0.00000
    417       9.9670      0.00000
    418       9.9782      0.00000
    419       9.9959      0.00000
    420      10.0303      0.00000
    421      10.0457      0.00000
    422      10.0621      0.00000
    423      10.0793      0.00000
    424      10.0951      0.00000
    425      10.1213      0.00000
    426      10.1428      0.00000
    427      10.1681      0.00000
    428      10.1861      0.00000
    429      10.2092      0.00000
    430      10.2348      0.00000
    431      10.2496      0.00000
    432      10.2721      0.00000
    433      10.2892      0.00000
    434      10.3045      0.00000
    435      10.3196      0.00000
    436      10.3509      0.00000
    437      10.3757      0.00000
    438      10.3903      0.00000
    439      10.4110      0.00000
    440      10.4360      0.00000
    441      10.4515      0.00000
    442      10.4785      0.00000
    443      10.4998      0.00000
    444      10.5128      0.00000
    445      10.5479      0.00000
    446      10.5814      0.00000
    447      10.5926      0.00000
    448      10.6368      0.00000
    449      10.6622      0.00000
    450      10.6778      0.00000
    451      10.7013      0.00000
    452      10.7379      0.00000
    453      10.7646      0.00000
    454      10.7914      0.00000
    455      10.8150      0.00000
    456      10.8364      0.00000
    457      10.8552      0.00000
    458      10.8670      0.00000
    459      10.8875      0.00000
    460      10.9255      0.00000
    461      10.9783      0.00000
    462      10.9903      0.00000
    463      11.0177      0.00000
    464      11.0464      0.00000

 k-point    14 :       0.5000    0.0000    0.2000
  band No.  band energies     occupation 
      1     -45.5192      2.00000
      2     -39.4671      2.00000
      3     -39.4256      2.00000
      4     -39.4123      2.00000
      5     -39.3977      2.00000
      6     -39.3962      2.00000
      7     -39.3860      2.00000
      8     -39.3752      2.00000
      9     -39.3635      2.00000
     10     -39.3564      2.00000
     11     -39.3435      2.00000
     12     -39.3374      2.00000
     13     -39.3312      2.00000
     14     -39.3291      2.00000
     15     -39.3193      2.00000
     16     -39.3104      2.00000
     17     -39.3028      2.00000
     18     -39.2964      2.00000
     19     -39.2936      2.00000
     20     -39.2891      2.00000
     21     -39.2765      2.00000
     22     -39.2752      2.00000
     23     -39.2660      2.00000
     24     -39.2590      2.00000
     25     -39.2511      2.00000
     26     -39.2415      2.00000
     27     -39.2398      2.00000
     28     -39.2369      2.00000
     29     -39.2341      2.00000
     30     -39.2296      2.00000
     31     -39.2251      2.00000
     32     -39.2160      2.00000
     33     -39.2124      2.00000
     34     -39.2046      2.00000
     35     -39.1978      2.00000
     36     -39.1901      2.00000
     37     -39.1804      2.00000
     38     -39.1725      2.00000
     39     -39.1642      2.00000
     40     -39.1540      2.00000
     41     -39.1514      2.00000
     42     -39.1484      2.00000
     43     -39.1452      2.00000
     44     -39.1352      2.00000
     45     -39.1283      2.00000
     46     -39.1230      2.00000
     47     -39.1144      2.00000
     48     -39.1063      2.00000
     49     -39.1051      2.00000
     50     -39.1023      2.00000
     51     -39.0988      2.00000
     52     -39.0936      2.00000
     53     -39.0828      2.00000
     54     -39.0703      2.00000
     55     -39.0636      2.00000
     56     -39.0610      2.00000
     57     -39.0309      2.00000
     58     -39.0254      2.00000
     59     -39.0214      2.00000
     60     -39.0199      2.00000
     61     -39.0149      2.00000
     62     -38.9513      2.00000
     63     -38.9137      2.00000
     64     -38.9132      2.00000
     65     -21.6081      2.00000
     66     -21.5850      2.00000
     67     -21.5569      2.00000
     68     -18.0376      2.00000
     69     -17.9977      2.00000
     70     -17.9849      2.00000
     71     -17.9770      2.00000
     72     -17.9624      2.00000
     73     -17.9568      2.00000
     74     -17.9467      2.00000
     75     -17.9264      2.00000
     76     -17.9172      2.00000
     77     -17.9085      2.00000
     78     -17.9051      2.00000
     79     -17.8852      2.00000
     80     -17.8815      2.00000
     81     -17.8723      2.00000
     82     -17.8629      2.00000
     83     -17.8594      2.00000
     84     -17.8483      2.00000
     85     -17.8393      2.00000
     86     -17.8266      2.00000
     87     -17.8228      2.00000
     88     -17.8147      2.00000
     89     -17.8076      2.00000
     90     -17.8020      2.00000
     91     -17.7884      2.00000
     92     -17.7859      2.00000
     93     -17.7799      2.00000
     94     -17.7680      2.00000
     95     -17.7584      2.00000
     96     -17.7511      2.00000
     97     -17.7441      2.00000
     98     -17.7346      2.00000
     99     -17.7296      2.00000
    100     -17.7206      2.00000
    101     -17.7141      2.00000
    102     -17.7115      2.00000
    103     -17.7010      2.00000
    104     -17.6918      2.00000
    105     -17.6807      2.00000
    106     -17.6702      2.00000
    107     -17.6652      2.00000
    108     -17.6605      2.00000
    109     -17.6519      2.00000
    110     -17.6407      2.00000
    111     -17.6340      2.00000
    112     -17.6276      2.00000
    113     -17.6218      2.00000
    114     -17.6173      2.00000
    115     -17.6118      2.00000
    116     -17.5999      2.00000
    117     -17.5935      2.00000
    118     -17.5882      2.00000
    119     -17.5818      2.00000
    120     -17.5730      2.00000
    121     -17.5693      2.00000
    122     -17.5638      2.00000
    123     -17.5535      2.00000
    124     -17.5429      2.00000
    125     -17.5348      2.00000
    126     -17.5221      2.00000
    127     -17.5115      2.00000
    128     -17.5088      2.00000
    129     -17.5016      2.00000
    130     -17.4911      2.00000
    131     -17.4882      2.00000
    132     -17.4779      2.00000
    133     -17.4662      2.00000
    134     -17.4630      2.00000
    135     -17.4510      2.00000
    136     -17.4416      2.00000
    137     -17.4378      2.00000
    138     -17.4239      2.00000
    139     -17.4186      2.00000
    140     -17.4125      2.00000
    141     -17.4002      2.00000
    142     -17.3982      2.00000
    143     -17.3848      2.00000
    144     -17.3710      2.00000
    145     -17.3662      2.00000
    146     -17.3616      2.00000
    147     -17.3509      2.00000
    148     -17.3439      2.00000
    149     -17.3370      2.00000
    150     -17.3334      2.00000
    151     -17.3235      2.00000
    152     -17.3160      2.00000
    153     -17.3061      2.00000
    154     -17.3009      2.00000
    155     -17.2909      2.00000
    156     -17.2863      2.00000
    157     -17.2834      2.00000
    158     -17.2751      2.00000
    159     -17.2640      2.00000
    160     -17.2554      2.00000
    161     -17.2497      2.00000
    162     -17.2442      2.00000
    163     -17.2380      2.00000
    164     -17.2307      2.00000
    165     -17.2293      2.00000
    166     -17.2202      2.00000
    167     -17.2113      2.00000
    168     -17.1958      2.00000
    169     -17.1915      2.00000
    170     -17.1867      2.00000
    171     -17.1784      2.00000
    172     -17.1737      2.00000
    173     -17.1678      2.00000
    174     -17.1668      2.00000
    175     -17.1617      2.00000
    176     -17.1532      2.00000
    177     -17.1487      2.00000
    178     -17.1465      2.00000
    179     -17.1399      2.00000
    180     -17.1353      2.00000
    181     -17.1276      2.00000
    182     -17.1223      2.00000
    183     -17.1157      2.00000
    184     -17.1134      2.00000
    185     -17.1070      2.00000
    186     -17.1004      2.00000
    187     -17.0975      2.00000
    188     -17.0945      2.00000
    189     -17.0900      2.00000
    190     -17.0847      2.00000
    191     -17.0804      2.00000
    192     -17.0743      2.00000
    193     -17.0676      2.00000
    194     -17.0656      2.00000
    195     -17.0588      2.00000
    196     -17.0512      2.00000
    197     -17.0446      2.00000
    198     -17.0366      2.00000
    199     -17.0335      2.00000
    200     -17.0282      2.00000
    201     -17.0232      2.00000
    202     -17.0192      2.00000
    203     -17.0148      2.00000
    204     -17.0078      2.00000
    205     -17.0032      2.00000
    206     -16.9963      2.00000
    207     -16.9929      2.00000
    208     -16.9908      2.00000
    209     -16.9814      2.00000
    210     -16.9790      2.00000
    211     -16.9756      2.00000
    212     -16.9686      2.00000
    213     -16.9676      2.00000
    214     -16.9619      2.00000
    215     -16.9535      2.00000
    216     -16.9483      2.00000
    217     -16.9441      2.00000
    218     -16.9380      2.00000
    219     -16.9356      2.00000
    220     -16.9325      2.00000
    221     -16.9283      2.00000
    222     -16.9214      2.00000
    223     -16.9195      2.00000
    224     -16.9117      2.00000
    225     -16.9052      2.00000
    226     -16.9028      2.00000
    227     -16.8931      2.00000
    228     -16.8915      2.00000
    229     -16.8811      2.00000
    230     -16.8761      2.00000
    231     -16.8735      2.00000
    232     -16.8662      2.00000
    233     -16.8634      2.00000
    234     -16.8534      2.00000
    235     -16.8497      2.00000
    236     -16.8453      2.00000
    237     -16.8370      2.00000
    238     -16.8333      2.00000
    239     -16.8232      2.00000
    240     -16.8166      2.00000
    241     -16.8098      2.00000
    242     -16.8053      2.00000
    243     -16.7995      2.00000
    244     -16.7860      2.00000
    245     -16.7774      2.00000
    246     -16.7641      2.00000
    247     -16.7608      2.00000
    248     -16.7540      2.00000
    249     -16.7433      2.00000
    250     -16.7316      2.00000
    251     -16.7131      2.00000
    252     -16.7088      2.00000
    253     -16.6978      2.00000
    254     -16.6603      2.00000
    255     -16.6499      2.00000
    256     -16.6436      2.00000
    257       4.1319      2.00000
    258       4.1485      2.00000
    259       5.2224      2.00000
    260       5.2344      2.00000
    261       5.5869      2.00000
    262       5.6096      2.00000
    263       5.6450      2.00000
    264       5.6724      2.00000
    265       6.1428      2.00000
    266       6.1684      2.00000
    267       6.1876      2.00000
    268       6.2308      2.00000
    269       6.2555      2.00000
    270       6.2763      2.00000
    271       6.2958      2.00000
    272       6.3068      2.00000
    273       6.3334      2.00000
    274       6.3790      2.00000
    275       6.4045      2.00000
    276       6.4262      2.00000
    277       6.4355      2.00000
    278       6.4672      2.00000
    279       6.4935      2.00000
    280       6.5227      2.00000
    281       6.5318      2.00000
    282       6.5435      2.00000
    283       6.5659      2.00000
    284       6.5916      2.00000
    285       6.6230      2.00000
    286       6.6554      2.00000
    287       6.6807      2.00000
    288       6.7473      2.00000
    289       6.7645      2.00000
    290       6.8046      2.00000
    291       6.8217      2.00000
    292       6.8391      2.00000
    293       6.8508      2.00000
    294       6.8864      2.00000
    295       6.9038      2.00000
    296       6.9260      2.00000
    297       6.9537      2.00000
    298       6.9830      2.00000
    299       7.0063      2.00000
    300       7.0366      2.00000
    301       7.0665      2.00000
    302       7.0839      2.00000
    303       7.1007      2.00000
    304       7.1137      2.00000
    305       7.1314      2.00000
    306       7.1619      2.00000
    307       7.1815      2.00000
    308       7.2337      2.00000
    309       7.3125      2.00000
    310       7.3950      2.00000
    311       7.4423      2.00000
    312       7.4819      2.00000
    313       7.5073      2.00000
    314       7.5304      2.00000
    315       7.5565      2.00000
    316       7.5669      2.00000
    317       7.5991      2.00000
    318       7.6538      2.00000
    319       7.6688      2.00000
    320       7.6851      2.00000
    321       7.7151      2.00000
    322       7.7362      2.00000
    323       7.7633      2.00000
    324       7.8056      2.00000
    325       7.8140      2.00000
    326       7.8367      2.00000
    327       7.8574      2.00000
    328       7.8795      2.00000
    329       7.9039      2.00000
    330       7.9382      2.00000
    331       7.9490      2.00000
    332       7.9754      2.00000
    333       7.9858      2.00000
    334       7.9948      2.00000
    335       8.0289      2.00000
    336       8.0504      2.00000
    337       8.0572      2.00000
    338       8.0748      2.00000
    339       8.1198      2.00000
    340       8.1417      2.00000
    341       8.1585      2.00000
    342       8.1793      2.00000
    343       8.1954      2.00000
    344       8.2117      2.00000
    345       8.2394      2.00000
    346       8.2536      2.00000
    347       8.2792      2.00000
    348       8.2933      2.00000
    349       8.3117      2.00000
    350       8.3314      2.00000
    351       8.3455      2.00000
    352       8.3614      2.00000
    353       8.3916      2.00000
    354       8.4053      2.00000
    355       8.4290      2.00000
    356       8.4603      2.00000
    357       8.4692      2.00000
    358       8.4878      2.00000
    359       8.5298      2.00000
    360       8.5628      2.00000
    361       8.5858      2.00000
    362       8.6077      2.00000
    363       8.6355      2.00000
    364       8.6499      2.00000
    365       8.6651      2.00000
    366       8.6837      2.00000
    367       8.7191      2.00000
    368       8.7478      2.00000
    369       8.7707      2.00000
    370       8.8049      2.00000
    371       8.8288      2.00000
    372       8.8557      2.00000
    373       8.8833      2.00000
    374       8.9251      2.00000
    375       8.9664      2.00000
    376       8.9913      2.00000
    377       9.0248      2.00000
    378       9.0539      2.00000
    379       9.0905      2.00000
    380       9.1561      1.99744
    381       9.1796      1.98120
    382       9.2084      1.87570
    383       9.2170      1.80394
    384       9.2358      1.55353
    385       9.2597      1.06698
    386       9.2827      0.57167
    387       9.3068      0.21238
    388       9.3171      0.12364
    389       9.3394      0.03004
    390       9.3565      0.00799
    391       9.3950      0.00018
    392       9.4067      0.00005
    393       9.4365      0.00000
    394       9.4618      0.00000
    395       9.4708      0.00000
    396       9.4827      0.00000
    397       9.5103      0.00000
    398       9.5447      0.00000
    399       9.5764      0.00000
    400       9.6004      0.00000
    401       9.6095      0.00000
    402       9.6435      0.00000
    403       9.6613      0.00000
    404       9.6841      0.00000
    405       9.6987      0.00000
    406       9.7219      0.00000
    407       9.7372      0.00000
    408       9.7576      0.00000
    409       9.7703      0.00000
    410       9.7936      0.00000
    411       9.8360      0.00000
    412       9.8541      0.00000
    413       9.8678      0.00000
    414       9.8791      0.00000
    415       9.9270      0.00000
    416       9.9455      0.00000
    417       9.9704      0.00000
    418       9.9831      0.00000
    419      10.0124      0.00000
    420      10.0306      0.00000
    421      10.0445      0.00000
    422      10.0814      0.00000
    423      10.1015      0.00000
    424      10.1188      0.00000
    425      10.1350      0.00000
    426      10.1620      0.00000
    427      10.1798      0.00000
    428      10.1905      0.00000
    429      10.2097      0.00000
    430      10.2327      0.00000
    431      10.2702      0.00000
    432      10.2883      0.00000
    433      10.3023      0.00000
    434      10.3147      0.00000
    435      10.3247      0.00000
    436      10.3600      0.00000
    437      10.3651      0.00000
    438      10.3936      0.00000
    439      10.4211      0.00000
    440      10.4549      0.00000
    441      10.4782      0.00000
    442      10.4868      0.00000
    443      10.5019      0.00000
    444      10.5267      0.00000
    445      10.5564      0.00000
    446      10.5764      0.00000
    447      10.5924      0.00000
    448      10.6385      0.00000
    449      10.6648      0.00000
    450      10.6754      0.00000
    451      10.6907      0.00000
    452      10.7204      0.00000
    453      10.7397      0.00000
    454      10.7584      0.00000
    455      10.7804      0.00000
    456      10.8059      0.00000
    457      10.8430      0.00000
    458      10.8553      0.00000
    459      10.8778      0.00000
    460      10.8869      0.00000
    461      10.9109      0.00000
    462      10.9387      0.00000
    463      10.9591      0.00000
    464      10.9915      0.00000

 k-point    15 :      -0.0000    0.2500    0.2000
  band No.  band energies     occupation 
      1     -45.5192      2.00000
      2     -39.4670      2.00000
      3     -39.4266      2.00000
      4     -39.4092      2.00000
      5     -39.3989      2.00000
      6     -39.3958      2.00000
      7     -39.3872      2.00000
      8     -39.3750      2.00000
      9     -39.3628      2.00000
     10     -39.3576      2.00000
     11     -39.3418      2.00000
     12     -39.3391      2.00000
     13     -39.3347      2.00000
     14     -39.3276      2.00000
     15     -39.3193      2.00000
     16     -39.3100      2.00000
     17     -39.3037      2.00000
     18     -39.2948      2.00000
     19     -39.2931      2.00000
     20     -39.2903      2.00000
     21     -39.2776      2.00000
     22     -39.2724      2.00000
     23     -39.2670      2.00000
     24     -39.2591      2.00000
     25     -39.2489      2.00000
     26     -39.2445      2.00000
     27     -39.2401      2.00000
     28     -39.2370      2.00000
     29     -39.2344      2.00000
     30     -39.2292      2.00000
     31     -39.2248      2.00000
     32     -39.2161      2.00000
     33     -39.2117      2.00000
     34     -39.2038      2.00000
     35     -39.1960      2.00000
     36     -39.1900      2.00000
     37     -39.1797      2.00000
     38     -39.1740      2.00000
     39     -39.1650      2.00000
     40     -39.1551      2.00000
     41     -39.1497      2.00000
     42     -39.1478      2.00000
     43     -39.1455      2.00000
     44     -39.1357      2.00000
     45     -39.1293      2.00000
     46     -39.1224      2.00000
     47     -39.1140      2.00000
     48     -39.1093      2.00000
     49     -39.1048      2.00000
     50     -39.1007      2.00000
     51     -39.0967      2.00000
     52     -39.0952      2.00000
     53     -39.0826      2.00000
     54     -39.0707      2.00000
     55     -39.0638      2.00000
     56     -39.0609      2.00000
     57     -39.0308      2.00000
     58     -39.0252      2.00000
     59     -39.0217      2.00000
     60     -39.0196      2.00000
     61     -39.0150      2.00000
     62     -38.9512      2.00000
     63     -38.9137      2.00000
     64     -38.9132      2.00000
     65     -21.6081      2.00000
     66     -21.5850      2.00000
     67     -21.5569      2.00000
     68     -18.0409      2.00000
     69     -17.9983      2.00000
     70     -17.9800      2.00000
     71     -17.9751      2.00000
     72     -17.9661      2.00000
     73     -17.9518      2.00000
     74     -17.9392      2.00000
     75     -17.9277      2.00000
     76     -17.9176      2.00000
     77     -17.9114      2.00000
     78     -17.9033      2.00000
     79     -17.8931      2.00000
     80     -17.8834      2.00000
     81     -17.8732      2.00000
     82     -17.8675      2.00000
     83     -17.8540      2.00000
     84     -17.8463      2.00000
     85     -17.8368      2.00000
     86     -17.8256      2.00000
     87     -17.8233      2.00000
     88     -17.8172      2.00000
     89     -17.7986      2.00000
     90     -17.7938      2.00000
     91     -17.7900      2.00000
     92     -17.7821      2.00000
     93     -17.7757      2.00000
     94     -17.7691      2.00000
     95     -17.7607      2.00000
     96     -17.7539      2.00000
     97     -17.7448      2.00000
     98     -17.7347      2.00000
     99     -17.7269      2.00000
    100     -17.7245      2.00000
    101     -17.7190      2.00000
    102     -17.7108      2.00000
    103     -17.7066      2.00000
    104     -17.6985      2.00000
    105     -17.6936      2.00000
    106     -17.6816      2.00000
    107     -17.6758      2.00000
    108     -17.6675      2.00000
    109     -17.6564      2.00000
    110     -17.6529      2.00000
    111     -17.6470      2.00000
    112     -17.6367      2.00000
    113     -17.6279      2.00000
    114     -17.6227      2.00000
    115     -17.6135      2.00000
    116     -17.6047      2.00000
    117     -17.6010      2.00000
    118     -17.5905      2.00000
    119     -17.5839      2.00000
    120     -17.5703      2.00000
    121     -17.5604      2.00000
    122     -17.5501      2.00000
    123     -17.5438      2.00000
    124     -17.5362      2.00000
    125     -17.5234      2.00000
    126     -17.5096      2.00000
    127     -17.4994      2.00000
    128     -17.4964      2.00000
    129     -17.4868      2.00000
    130     -17.4780      2.00000
    131     -17.4747      2.00000
    132     -17.4683      2.00000
    133     -17.4628      2.00000
    134     -17.4473      2.00000
    135     -17.4414      2.00000
    136     -17.4340      2.00000
    137     -17.4317      2.00000
    138     -17.4218      2.00000
    139     -17.4102      2.00000
    140     -17.3989      2.00000
    141     -17.3945      2.00000
    142     -17.3898      2.00000
    143     -17.3841      2.00000
    144     -17.3806      2.00000
    145     -17.3684      2.00000
    146     -17.3632      2.00000
    147     -17.3563      2.00000
    148     -17.3505      2.00000
    149     -17.3427      2.00000
    150     -17.3376      2.00000
    151     -17.3231      2.00000
    152     -17.3184      2.00000
    153     -17.3123      2.00000
    154     -17.3104      2.00000
    155     -17.2936      2.00000
    156     -17.2901      2.00000
    157     -17.2844      2.00000
    158     -17.2804      2.00000
    159     -17.2672      2.00000
    160     -17.2627      2.00000
    161     -17.2579      2.00000
    162     -17.2456      2.00000
    163     -17.2395      2.00000
    164     -17.2308      2.00000
    165     -17.2251      2.00000
    166     -17.2169      2.00000
    167     -17.2135      2.00000
    168     -17.2034      2.00000
    169     -17.2004      2.00000
    170     -17.1933      2.00000
    171     -17.1833      2.00000
    172     -17.1767      2.00000
    173     -17.1722      2.00000
    174     -17.1694      2.00000
    175     -17.1628      2.00000
    176     -17.1556      2.00000
    177     -17.1519      2.00000
    178     -17.1481      2.00000
    179     -17.1418      2.00000
    180     -17.1360      2.00000
    181     -17.1278      2.00000
    182     -17.1203      2.00000
    183     -17.1150      2.00000
    184     -17.1115      2.00000
    185     -17.1059      2.00000
    186     -17.0998      2.00000
    187     -17.0948      2.00000
    188     -17.0904      2.00000
    189     -17.0873      2.00000
    190     -17.0827      2.00000
    191     -17.0755      2.00000
    192     -17.0725      2.00000
    193     -17.0672      2.00000
    194     -17.0655      2.00000
    195     -17.0581      2.00000
    196     -17.0537      2.00000
    197     -17.0458      2.00000
    198     -17.0413      2.00000
    199     -17.0372      2.00000
    200     -17.0303      2.00000
    201     -17.0256      2.00000
    202     -17.0232      2.00000
    203     -17.0131      2.00000
    204     -17.0088      2.00000
    205     -17.0051      2.00000
    206     -17.0007      2.00000
    207     -16.9996      2.00000
    208     -16.9919      2.00000
    209     -16.9867      2.00000
    210     -16.9806      2.00000
    211     -16.9732      2.00000
    212     -16.9693      2.00000
    213     -16.9645      2.00000
    214     -16.9596      2.00000
    215     -16.9566      2.00000
    216     -16.9490      2.00000
    217     -16.9435      2.00000
    218     -16.9413      2.00000
    219     -16.9358      2.00000
    220     -16.9331      2.00000
    221     -16.9256      2.00000
    222     -16.9225      2.00000
    223     -16.9173      2.00000
    224     -16.9092      2.00000
    225     -16.9050      2.00000
    226     -16.9019      2.00000
    227     -16.8967      2.00000
    228     -16.8924      2.00000
    229     -16.8839      2.00000
    230     -16.8762      2.00000
    231     -16.8698      2.00000
    232     -16.8631      2.00000
    233     -16.8583      2.00000
    234     -16.8556      2.00000
    235     -16.8498      2.00000
    236     -16.8419      2.00000
    237     -16.8352      2.00000
    238     -16.8324      2.00000
    239     -16.8230      2.00000
    240     -16.8161      2.00000
    241     -16.8104      2.00000
    242     -16.8027      2.00000
    243     -16.8002      2.00000
    244     -16.7808      2.00000
    245     -16.7745      2.00000
    246     -16.7600      2.00000
    247     -16.7574      2.00000
    248     -16.7529      2.00000
    249     -16.7474      2.00000
    250     -16.7292      2.00000
    251     -16.7116      2.00000
    252     -16.7094      2.00000
    253     -16.6980      2.00000
    254     -16.6659      2.00000
    255     -16.6482      2.00000
    256     -16.6393      2.00000
    257       3.9190      2.00000
    258       4.7488      2.00000
    259       5.0364      2.00000
    260       5.1033      2.00000
    261       5.1247      2.00000
    262       5.6960      2.00000
    263       5.7160      2.00000
    264       5.7298      2.00000
    265       5.9296      2.00000
    266       5.9547      2.00000
    267       5.9673      2.00000
    268       6.0119      2.00000
    269       6.2310      2.00000
    270       6.2583      2.00000
    271       6.2826      2.00000
    272       6.3180      2.00000
    273       6.3427      2.00000
    274       6.3636      2.00000
    275       6.3715      2.00000
    276       6.5194      2.00000
    277       6.5369      2.00000
    278       6.5765      2.00000
    279       6.6129      2.00000
    280       6.6358      2.00000
    281       6.6460      2.00000
    282       6.7027      2.00000
    283       6.7166      2.00000
    284       6.7493      2.00000
    285       6.7582      2.00000
    286       6.7655      2.00000
    287       6.7938      2.00000
    288       6.8088      2.00000
    289       6.8301      2.00000
    290       6.8459      2.00000
    291       6.8634      2.00000
    292       6.8790      2.00000
    293       6.8860      2.00000
    294       6.9194      2.00000
    295       6.9272      2.00000
    296       6.9761      2.00000
    297       6.9881      2.00000
    298       7.0190      2.00000
    299       7.0507      2.00000
    300       7.0814      2.00000
    301       7.0971      2.00000
    302       7.1073      2.00000
    303       7.1538      2.00000
    304       7.1709      2.00000
    305       7.1967      2.00000
    306       7.2134      2.00000
    307       7.2449      2.00000
    308       7.2515      2.00000
    309       7.2710      2.00000
    310       7.2985      2.00000
    311       7.3330      2.00000
    312       7.3595      2.00000
    313       7.3676      2.00000
    314       7.3952      2.00000
    315       7.4311      2.00000
    316       7.4791      2.00000
    317       7.5064      2.00000
    318       7.5239      2.00000
    319       7.5464      2.00000
    320       7.5532      2.00000
    321       7.5931      2.00000
    322       7.6361      2.00000
    323       7.6667      2.00000
    324       7.6948      2.00000
    325       7.7139      2.00000
    326       7.7522      2.00000
    327       7.7920      2.00000
    328       7.8327      2.00000
    329       7.8752      2.00000
    330       7.8877      2.00000
    331       7.9200      2.00000
    332       7.9362      2.00000
    333       7.9560      2.00000
    334       8.0157      2.00000
    335       8.0254      2.00000
    336       8.0447      2.00000
    337       8.0797      2.00000
    338       8.1062      2.00000
    339       8.1349      2.00000
    340       8.1488      2.00000
    341       8.1604      2.00000
    342       8.1958      2.00000
    343       8.2273      2.00000
    344       8.2597      2.00000
    345       8.2825      2.00000
    346       8.2980      2.00000
    347       8.3090      2.00000
    348       8.3445      2.00000
    349       8.3892      2.00000
    350       8.3961      2.00000
    351       8.4111      2.00000
    352       8.4207      2.00000
    353       8.4529      2.00000
    354       8.4682      2.00000
    355       8.4934      2.00000
    356       8.5138      2.00000
    357       8.5322      2.00000
    358       8.5561      2.00000
    359       8.5889      2.00000
    360       8.6007      2.00000
    361       8.6568      2.00000
    362       8.6680      2.00000
    363       8.7013      2.00000
    364       8.7291      2.00000
    365       8.7423      2.00000
    366       8.7575      2.00000
    367       8.7941      2.00000
    368       8.8111      2.00000
    369       8.8274      2.00000
    370       8.8478      2.00000
    371       8.9041      2.00000
    372       8.9156      2.00000
    373       8.9349      2.00000
    374       8.9540      2.00000
    375       8.9730      2.00000
    376       8.9884      2.00000
    377       9.0156      2.00000
    378       9.0430      2.00000
    379       9.0724      2.00000
    380       9.0875      2.00000
    381       9.1326      1.99977
    382       9.1499      1.99858
    383       9.1879      1.96553
    384       9.2018      1.91484
    385       9.2394      1.49012
    386       9.2644      0.96140
    387       9.2861      0.50860
    388       9.3107      0.17482
    389       9.3293      0.05965
    390       9.3597      0.00606
    391       9.3909      0.00029
    392       9.4072      0.00004
    393       9.4302      0.00000
    394       9.4398      0.00000
    395       9.4606      0.00000
    396       9.4765      0.00000
    397       9.5082      0.00000
    398       9.5349      0.00000
    399       9.5509      0.00000
    400       9.5806      0.00000
    401       9.6069      0.00000
    402       9.6319      0.00000
    403       9.6368      0.00000
    404       9.6874      0.00000
    405       9.6987      0.00000
    406       9.7229      0.00000
    407       9.7536      0.00000
    408       9.7664      0.00000
    409       9.7769      0.00000
    410       9.7907      0.00000
    411       9.8227      0.00000
    412       9.8456      0.00000
    413       9.8793      0.00000
    414       9.9070      0.00000
    415       9.9356      0.00000
    416       9.9558      0.00000
    417       9.9624      0.00000
    418       9.9967      0.00000
    419      10.0056      0.00000
    420      10.0269      0.00000
    421      10.0588      0.00000
    422      10.0710      0.00000
    423      10.0838      0.00000
    424      10.1092      0.00000
    425      10.1426      0.00000
    426      10.1526      0.00000
    427      10.1630      0.00000
    428      10.1831      0.00000
    429      10.2008      0.00000
    430      10.2212      0.00000
    431      10.2534      0.00000
    432      10.2715      0.00000
    433      10.2959      0.00000
    434      10.3177      0.00000
    435      10.3351      0.00000
    436      10.3562      0.00000
    437      10.3738      0.00000
    438      10.3942      0.00000
    439      10.4117      0.00000
    440      10.4403      0.00000
    441      10.4632      0.00000
    442      10.4833      0.00000
    443      10.5029      0.00000
    444      10.5245      0.00000
    445      10.5533      0.00000
    446      10.5722      0.00000
    447      10.5877      0.00000
    448      10.6106      0.00000
    449      10.6446      0.00000
    450      10.6700      0.00000
    451      10.6847      0.00000
    452      10.7099      0.00000
    453      10.7256      0.00000
    454      10.7549      0.00000
    455      10.7794      0.00000
    456      10.8121      0.00000
    457      10.8484      0.00000
    458      10.8787      0.00000
    459      10.8995      0.00000
    460      10.9186      0.00000
    461      10.9420      0.00000
    462      10.9546      0.00000
    463      10.9942      0.00000
    464      11.0377      0.00000

 k-point    16 :       0.0000   -0.2500    0.2000
  band No.  band energies     occupation 
      1     -45.5192      2.00000
      2     -39.4670      2.00000
      3     -39.4266      2.00000
      4     -39.4092      2.00000
      5     -39.3988      2.00000
      6     -39.3963      2.00000
      7     -39.3856      2.00000
      8     -39.3754      2.00000
      9     -39.3629      2.00000
     10     -39.3587      2.00000
     11     -39.3439      2.00000
     12     -39.3374      2.00000
     13     -39.3326      2.00000
     14     -39.3283      2.00000
     15     -39.3210      2.00000
     16     -39.3094      2.00000
     17     -39.3022      2.00000
     18     -39.2955      2.00000
     19     -39.2932      2.00000
     20     -39.2887      2.00000
     21     -39.2789      2.00000
     22     -39.2742      2.00000
     23     -39.2647      2.00000
     24     -39.2612      2.00000
     25     -39.2487      2.00000
     26     -39.2423      2.00000
     27     -39.2402      2.00000
     28     -39.2367      2.00000
     29     -39.2338      2.00000
     30     -39.2294      2.00000
     31     -39.2258      2.00000
     32     -39.2167      2.00000
     33     -39.2127      2.00000
     34     -39.2044      2.00000
     35     -39.1957      2.00000
     36     -39.1893      2.00000
     37     -39.1793      2.00000
     38     -39.1735      2.00000
     39     -39.1653      2.00000
     40     -39.1550      2.00000
     41     -39.1500      2.00000
     42     -39.1479      2.00000
     43     -39.1459      2.00000
     44     -39.1343      2.00000
     45     -39.1295      2.00000
     46     -39.1228      2.00000
     47     -39.1141      2.00000
     48     -39.1094      2.00000
     49     -39.1049      2.00000
     50     -39.1008      2.00000
     51     -39.0960      2.00000
     52     -39.0956      2.00000
     53     -39.0826      2.00000
     54     -39.0707      2.00000
     55     -39.0638      2.00000
     56     -39.0610      2.00000
     57     -39.0307      2.00000
     58     -39.0253      2.00000
     59     -39.0217      2.00000
     60     -39.0195      2.00000
     61     -39.0150      2.00000
     62     -38.9512      2.00000
     63     -38.9137      2.00000
     64     -38.9132      2.00000
     65     -21.6081      2.00000
     66     -21.5850      2.00000
     67     -21.5569      2.00000
     68     -18.0393      2.00000
     69     -18.0017      2.00000
     70     -17.9823      2.00000
     71     -17.9775      2.00000
     72     -17.9638      2.00000
     73     -17.9466      2.00000
     74     -17.9358      2.00000
     75     -17.9223      2.00000
     76     -17.9213      2.00000
     77     -17.9104      2.00000
     78     -17.9036      2.00000
     79     -17.8975      2.00000
     80     -17.8804      2.00000
     81     -17.8756      2.00000
     82     -17.8642      2.00000
     83     -17.8534      2.00000
     84     -17.8464      2.00000
     85     -17.8403      2.00000
     86     -17.8304      2.00000
     87     -17.8208      2.00000
     88     -17.8138      2.00000
     89     -17.8085      2.00000
     90     -17.8001      2.00000
     91     -17.7891      2.00000
     92     -17.7835      2.00000
     93     -17.7763      2.00000
     94     -17.7663      2.00000
     95     -17.7608      2.00000
     96     -17.7495      2.00000
     97     -17.7431      2.00000
     98     -17.7392      2.00000
     99     -17.7334      2.00000
    100     -17.7235      2.00000
    101     -17.7169      2.00000
    102     -17.7104      2.00000
    103     -17.7027      2.00000
    104     -17.6977      2.00000
    105     -17.6930      2.00000
    106     -17.6844      2.00000
    107     -17.6792      2.00000
    108     -17.6664      2.00000
    109     -17.6572      2.00000
    110     -17.6443      2.00000
    111     -17.6409      2.00000
    112     -17.6378      2.00000
    113     -17.6234      2.00000
    114     -17.6152      2.00000
    115     -17.6119      2.00000
    116     -17.6032      2.00000
    117     -17.5969      2.00000
    118     -17.5880      2.00000
    119     -17.5831      2.00000
    120     -17.5720      2.00000
    121     -17.5602      2.00000
    122     -17.5560      2.00000
    123     -17.5455      2.00000
    124     -17.5310      2.00000
    125     -17.5260      2.00000
    126     -17.5182      2.00000
    127     -17.5057      2.00000
    128     -17.5018      2.00000
    129     -17.4893      2.00000
    130     -17.4814      2.00000
    131     -17.4743      2.00000
    132     -17.4704      2.00000
    133     -17.4595      2.00000
    134     -17.4494      2.00000
    135     -17.4442      2.00000
    136     -17.4382      2.00000
    137     -17.4247      2.00000
    138     -17.4206      2.00000
    139     -17.4117      2.00000
    140     -17.4068      2.00000
    141     -17.3994      2.00000
    142     -17.3917      2.00000
    143     -17.3802      2.00000
    144     -17.3722      2.00000
    145     -17.3699      2.00000
    146     -17.3649      2.00000
    147     -17.3559      2.00000
    148     -17.3446      2.00000
    149     -17.3413      2.00000
    150     -17.3306      2.00000
    151     -17.3184      2.00000
    152     -17.3155      2.00000
    153     -17.3086      2.00000
    154     -17.3048      2.00000
    155     -17.2983      2.00000
    156     -17.2948      2.00000
    157     -17.2843      2.00000
    158     -17.2791      2.00000
    159     -17.2717      2.00000
    160     -17.2635      2.00000
    161     -17.2498      2.00000
    162     -17.2449      2.00000
    163     -17.2406      2.00000
    164     -17.2348      2.00000
    165     -17.2264      2.00000
    166     -17.2145      2.00000
    167     -17.2135      2.00000
    168     -17.2103      2.00000
    169     -17.2018      2.00000
    170     -17.1898      2.00000
    171     -17.1880      2.00000
    172     -17.1809      2.00000
    173     -17.1713      2.00000
    174     -17.1658      2.00000
    175     -17.1588      2.00000
    176     -17.1555      2.00000
    177     -17.1502      2.00000
    178     -17.1425      2.00000
    179     -17.1393      2.00000
    180     -17.1365      2.00000
    181     -17.1282      2.00000
    182     -17.1236      2.00000
    183     -17.1174      2.00000
    184     -17.1108      2.00000
    185     -17.1068      2.00000
    186     -17.1017      2.00000
    187     -17.0980      2.00000
    188     -17.0950      2.00000
    189     -17.0872      2.00000
    190     -17.0817      2.00000
    191     -17.0753      2.00000
    192     -17.0720      2.00000
    193     -17.0704      2.00000
    194     -17.0619      2.00000
    195     -17.0587      2.00000
    196     -17.0529      2.00000
    197     -17.0484      2.00000
    198     -17.0417      2.00000
    199     -17.0389      2.00000
    200     -17.0340      2.00000
    201     -17.0274      2.00000
    202     -17.0212      2.00000
    203     -17.0198      2.00000
    204     -17.0103      2.00000
    205     -17.0047      2.00000
    206     -17.0012      2.00000
    207     -16.9924      2.00000
    208     -16.9876      2.00000
    209     -16.9832      2.00000
    210     -16.9795      2.00000
    211     -16.9711      2.00000
    212     -16.9693      2.00000
    213     -16.9630      2.00000
    214     -16.9594      2.00000
    215     -16.9549      2.00000
    216     -16.9519      2.00000
    217     -16.9458      2.00000
    218     -16.9423      2.00000
    219     -16.9340      2.00000
    220     -16.9292      2.00000
    221     -16.9255      2.00000
    222     -16.9223      2.00000
    223     -16.9158      2.00000
    224     -16.9114      2.00000
    225     -16.9067      2.00000
    226     -16.8999      2.00000
    227     -16.8969      2.00000
    228     -16.8906      2.00000
    229     -16.8844      2.00000
    230     -16.8785      2.00000
    231     -16.8729      2.00000
    232     -16.8635      2.00000
    233     -16.8607      2.00000
    234     -16.8549      2.00000
    235     -16.8488      2.00000
    236     -16.8389      2.00000
    237     -16.8311      2.00000
    238     -16.8270      2.00000
    239     -16.8221      2.00000
    240     -16.8171      2.00000
    241     -16.8120      2.00000
    242     -16.8103      2.00000
    243     -16.7948      2.00000
    244     -16.7851      2.00000
    245     -16.7747      2.00000
    246     -16.7631      2.00000
    247     -16.7614      2.00000
    248     -16.7567      2.00000
    249     -16.7428      2.00000
    250     -16.7282      2.00000
    251     -16.7096      2.00000
    252     -16.7063      2.00000
    253     -16.6983      2.00000
    254     -16.6632      2.00000
    255     -16.6516      2.00000
    256     -16.6394      2.00000
    257       3.9191      2.00000
    258       4.7496      2.00000
    259       5.0361      2.00000
    260       5.1050      2.00000
    261       5.1264      2.00000
    262       5.6966      2.00000
    263       5.7120      2.00000
    264       5.7241      2.00000
    265       5.9358      2.00000
    266       5.9451      2.00000
    267       5.9703      2.00000
    268       6.0113      2.00000
    269       6.2300      2.00000
    270       6.2533      2.00000
    271       6.2847      2.00000
    272       6.3051      2.00000
    273       6.3336      2.00000
    274       6.3661      2.00000
    275       6.3861      2.00000
    276       6.5121      2.00000
    277       6.5261      2.00000
    278       6.5852      2.00000
    279       6.6146      2.00000
    280       6.6283      2.00000
    281       6.6547      2.00000
    282       6.7177      2.00000
    283       6.7487      2.00000
    284       6.7578      2.00000
    285       6.7694      2.00000
    286       6.7775      2.00000
    287       6.7969      2.00000
    288       6.8096      2.00000
    289       6.8246      2.00000
    290       6.8457      2.00000
    291       6.8495      2.00000
    292       6.8764      2.00000
    293       6.9068      2.00000
    294       6.9273      2.00000
    295       6.9400      2.00000
    296       6.9651      2.00000
    297       6.9850      2.00000
    298       7.0051      2.00000
    299       7.0383      2.00000
    300       7.0571      2.00000
    301       7.0934      2.00000
    302       7.1115      2.00000
    303       7.1381      2.00000
    304       7.1671      2.00000
    305       7.1974      2.00000
    306       7.2197      2.00000
    307       7.2304      2.00000
    308       7.2463      2.00000
    309       7.2854      2.00000
    310       7.3059      2.00000
    311       7.3227      2.00000
    312       7.3565      2.00000
    313       7.3802      2.00000
    314       7.4053      2.00000
    315       7.4272      2.00000
    316       7.4623      2.00000
    317       7.4778      2.00000
    318       7.5212      2.00000
    319       7.5433      2.00000
    320       7.5561      2.00000
    321       7.5770      2.00000
    322       7.6270      2.00000
    323       7.6566      2.00000
    324       7.6834      2.00000
    325       7.7202      2.00000
    326       7.7768      2.00000
    327       7.8185      2.00000
    328       7.8427      2.00000
    329       7.8769      2.00000
    330       7.8965      2.00000
    331       7.9196      2.00000
    332       7.9596      2.00000
    333       7.9682      2.00000
    334       7.9969      2.00000
    335       8.0137      2.00000
    336       8.0515      2.00000
    337       8.0560      2.00000
    338       8.0895      2.00000
    339       8.1134      2.00000
    340       8.1497      2.00000
    341       8.1745      2.00000
    342       8.1943      2.00000
    343       8.2246      2.00000
    344       8.2490      2.00000
    345       8.2917      2.00000
    346       8.3170      2.00000
    347       8.3288      2.00000
    348       8.3508      2.00000
    349       8.3652      2.00000
    350       8.3998      2.00000
    351       8.4122      2.00000
    352       8.4149      2.00000
    353       8.4564      2.00000
    354       8.4679      2.00000
    355       8.4977      2.00000
    356       8.5101      2.00000
    357       8.5602      2.00000
    358       8.5825      2.00000
    359       8.5882      2.00000
    360       8.6121      2.00000
    361       8.6379      2.00000
    362       8.6759      2.00000
    363       8.6946      2.00000
    364       8.7110      2.00000
    365       8.7305      2.00000
    366       8.7699      2.00000
    367       8.7797      2.00000
    368       8.7900      2.00000
    369       8.8192      2.00000
    370       8.8392      2.00000
    371       8.8864      2.00000
    372       8.8911      2.00000
    373       8.9278      2.00000
    374       8.9491      2.00000
    375       8.9941      2.00000
    376       9.0065      2.00000
    377       9.0387      2.00000
    378       9.0502      2.00000
    379       9.0833      2.00000
    380       9.1142      1.99997
    381       9.1395      1.99951
    382       9.1668      1.99334
    383       9.1973      1.93549
    384       9.2223      1.74651
    385       9.2447      1.38932
    386       9.2740      0.74874
    387       9.2968      0.33494
    388       9.3131      0.15363
    389       9.3276      0.06633
    390       9.3588      0.00657
    391       9.3841      0.00059
    392       9.4106      0.00003
    393       9.4138      0.00002
    394       9.4608      0.00000
    395       9.4658      0.00000
    396       9.4774      0.00000
    397       9.5131      0.00000
    398       9.5607      0.00000
    399       9.5722      0.00000
    400       9.5824      0.00000
    401       9.6029      0.00000
    402       9.6232      0.00000
    403       9.6506      0.00000
    404       9.7015      0.00000
    405       9.7083      0.00000
    406       9.7236      0.00000
    407       9.7482      0.00000
    408       9.7629      0.00000
    409       9.7747      0.00000
    410       9.8081      0.00000
    411       9.8278      0.00000
    412       9.8590      0.00000
    413       9.8718      0.00000
    414       9.8877      0.00000
    415       9.9194      0.00000
    416       9.9403      0.00000
    417       9.9463      0.00000
    418       9.9693      0.00000
    419      10.0078      0.00000
    420      10.0206      0.00000
    421      10.0367      0.00000
    422      10.0463      0.00000
    423      10.0727      0.00000
    424      10.0938      0.00000
    425      10.1142      0.00000
    426      10.1352      0.00000
    427      10.1634      0.00000
    428      10.1796      0.00000
    429      10.2002      0.00000
    430      10.2167      0.00000
    431      10.2344      0.00000
    432      10.2575      0.00000
    433      10.2701      0.00000
    434      10.3026      0.00000
    435      10.3234      0.00000
    436      10.3420      0.00000
    437      10.3675      0.00000
    438      10.3800      0.00000
    439      10.3951      0.00000
    440      10.4420      0.00000
    441      10.4606      0.00000
    442      10.4779      0.00000
    443      10.5148      0.00000
    444      10.5295      0.00000
    445      10.5644      0.00000
    446      10.5855      0.00000
    447      10.6022      0.00000
    448      10.6405      0.00000
    449      10.6533      0.00000
    450      10.6643      0.00000
    451      10.6932      0.00000
    452      10.7258      0.00000
    453      10.7394      0.00000
    454      10.7646      0.00000
    455      10.7956      0.00000
    456      10.8188      0.00000
    457      10.8468      0.00000
    458      10.8601      0.00000
    459      10.8845      0.00000
    460      10.9181      0.00000
    461      10.9534      0.00000
    462      10.9712      0.00000
    463      11.0013      0.00000
    464      11.0169      0.00000

 k-point    17 :       0.2500    0.2500    0.2000
  band No.  band energies     occupation 
      1     -45.5192      2.00000
      2     -39.4668      2.00000
      3     -39.4259      2.00000
      4     -39.4099      2.00000
      5     -39.3994      2.00000
      6     -39.3960      2.00000
      7     -39.3871      2.00000
      8     -39.3750      2.00000
      9     -39.3634      2.00000
     10     -39.3570      2.00000
     11     -39.3423      2.00000
     12     -39.3379      2.00000
     13     -39.3335      2.00000
     14     -39.3280      2.00000
     15     -39.3210      2.00000
     16     -39.3104      2.00000
     17     -39.3030      2.00000
     18     -39.2942      2.00000
     19     -39.2935      2.00000
     20     -39.2902      2.00000
     21     -39.2773      2.00000
     22     -39.2722      2.00000
     23     -39.2676      2.00000
     24     -39.2591      2.00000
     25     -39.2485      2.00000
     26     -39.2432      2.00000
     27     -39.2403      2.00000
     28     -39.2376      2.00000
     29     -39.2332      2.00000
     30     -39.2307      2.00000
     31     -39.2239      2.00000
     32     -39.2168      2.00000
     33     -39.2116      2.00000
     34     -39.2039      2.00000
     35     -39.1968      2.00000
     36     -39.1891      2.00000
     37     -39.1812      2.00000
     38     -39.1727      2.00000
     39     -39.1648      2.00000
     40     -39.1552      2.00000
     41     -39.1504      2.00000
     42     -39.1479      2.00000
     43     -39.1453      2.00000
     44     -39.1362      2.00000
     45     -39.1284      2.00000
     46     -39.1226      2.00000
     47     -39.1140      2.00000
     48     -39.1084      2.00000
     49     -39.1050      2.00000
     50     -39.1013      2.00000
     51     -39.0970      2.00000
     52     -39.0947      2.00000
     53     -39.0827      2.00000
     54     -39.0706      2.00000
     55     -39.0638      2.00000
     56     -39.0608      2.00000
     57     -39.0308      2.00000
     58     -39.0253      2.00000
     59     -39.0215      2.00000
     60     -39.0197      2.00000
     61     -39.0150      2.00000
     62     -38.9513      2.00000
     63     -38.9137      2.00000
     64     -38.9131      2.00000
     65     -21.6081      2.00000
     66     -21.5850      2.00000
     67     -21.5569      2.00000
     68     -18.0384      2.00000
     69     -17.9976      2.00000
     70     -17.9755      2.00000
     71     -17.9682      2.00000
     72     -17.9644      2.00000
     73     -17.9525      2.00000
     74     -17.9341      2.00000
     75     -17.9263      2.00000
     76     -17.9181      2.00000
     77     -17.9108      2.00000
     78     -17.9024      2.00000
     79     -17.8904      2.00000
     80     -17.8814      2.00000
     81     -17.8756      2.00000
     82     -17.8625      2.00000
     83     -17.8538      2.00000
     84     -17.8468      2.00000
     85     -17.8400      2.00000
     86     -17.8286      2.00000
     87     -17.8230      2.00000
     88     -17.8122      2.00000
     89     -17.8097      2.00000
     90     -17.7978      2.00000
     91     -17.7930      2.00000
     92     -17.7873      2.00000
     93     -17.7764      2.00000
     94     -17.7678      2.00000
     95     -17.7624      2.00000
     96     -17.7525      2.00000
     97     -17.7446      2.00000
     98     -17.7379      2.00000
     99     -17.7277      2.00000
    100     -17.7236      2.00000
    101     -17.7180      2.00000
    102     -17.7143      2.00000
    103     -17.7049      2.00000
    104     -17.7027      2.00000
    105     -17.6971      2.00000
    106     -17.6855      2.00000
    107     -17.6722      2.00000
    108     -17.6682      2.00000
    109     -17.6557      2.00000
    110     -17.6501      2.00000
    111     -17.6414      2.00000
    112     -17.6329      2.00000
    113     -17.6247      2.00000
    114     -17.6136      2.00000
    115     -17.6100      2.00000
    116     -17.6063      2.00000
    117     -17.6033      2.00000
    118     -17.5908      2.00000
    119     -17.5862      2.00000
    120     -17.5753      2.00000
    121     -17.5660      2.00000
    122     -17.5590      2.00000
    123     -17.5459      2.00000
    124     -17.5419      2.00000
    125     -17.5298      2.00000
    126     -17.5156      2.00000
    127     -17.5088      2.00000
    128     -17.4995      2.00000
    129     -17.4952      2.00000
    130     -17.4896      2.00000
    131     -17.4825      2.00000
    132     -17.4713      2.00000
    133     -17.4631      2.00000
    134     -17.4519      2.00000
    135     -17.4460      2.00000
    136     -17.4383      2.00000
    137     -17.4282      2.00000
    138     -17.4264      2.00000
    139     -17.4084      2.00000
    140     -17.4047      2.00000
    141     -17.3992      2.00000
    142     -17.3915      2.00000
    143     -17.3833      2.00000
    144     -17.3683      2.00000
    145     -17.3633      2.00000
    146     -17.3572      2.00000
    147     -17.3514      2.00000
    148     -17.3402      2.00000
    149     -17.3361      2.00000
    150     -17.3254      2.00000
    151     -17.3213      2.00000
    152     -17.3165      2.00000
    153     -17.3085      2.00000
    154     -17.3029      2.00000
    155     -17.2932      2.00000
    156     -17.2882      2.00000
    157     -17.2828      2.00000
    158     -17.2751      2.00000
    159     -17.2688      2.00000
    160     -17.2612      2.00000
    161     -17.2492      2.00000
    162     -17.2449      2.00000
    163     -17.2377      2.00000
    164     -17.2287      2.00000
    165     -17.2271      2.00000
    166     -17.2138      2.00000
    167     -17.2085      2.00000
    168     -17.2037      2.00000
    169     -17.1974      2.00000
    170     -17.1882      2.00000
    171     -17.1850      2.00000
    172     -17.1792      2.00000
    173     -17.1722      2.00000
    174     -17.1666      2.00000
    175     -17.1625      2.00000
    176     -17.1561      2.00000
    177     -17.1498      2.00000
    178     -17.1465      2.00000
    179     -17.1412      2.00000
    180     -17.1288      2.00000
    181     -17.1270      2.00000
    182     -17.1225      2.00000
    183     -17.1168      2.00000
    184     -17.1120      2.00000
    185     -17.1080      2.00000
    186     -17.1038      2.00000
    187     -17.0958      2.00000
    188     -17.0930      2.00000
    189     -17.0854      2.00000
    190     -17.0798      2.00000
    191     -17.0742      2.00000
    192     -17.0719      2.00000
    193     -17.0691      2.00000
    194     -17.0628      2.00000
    195     -17.0590      2.00000
    196     -17.0492      2.00000
    197     -17.0449      2.00000
    198     -17.0405      2.00000
    199     -17.0345      2.00000
    200     -17.0292      2.00000
    201     -17.0258      2.00000
    202     -17.0195      2.00000
    203     -17.0151      2.00000
    204     -17.0121      2.00000
    205     -17.0080      2.00000
    206     -17.0011      2.00000
    207     -16.9943      2.00000
    208     -16.9909      2.00000
    209     -16.9873      2.00000
    210     -16.9822      2.00000
    211     -16.9726      2.00000
    212     -16.9714      2.00000
    213     -16.9659      2.00000
    214     -16.9608      2.00000
    215     -16.9575      2.00000
    216     -16.9514      2.00000
    217     -16.9470      2.00000
    218     -16.9413      2.00000
    219     -16.9344      2.00000
    220     -16.9325      2.00000
    221     -16.9294      2.00000
    222     -16.9211      2.00000
    223     -16.9178      2.00000
    224     -16.9106      2.00000
    225     -16.9057      2.00000
    226     -16.9016      2.00000
    227     -16.8918      2.00000
    228     -16.8892      2.00000
    229     -16.8861      2.00000
    230     -16.8803      2.00000
    231     -16.8695      2.00000
    232     -16.8641      2.00000
    233     -16.8563      2.00000
    234     -16.8540      2.00000
    235     -16.8494      2.00000
    236     -16.8454      2.00000
    237     -16.8395      2.00000
    238     -16.8310      2.00000
    239     -16.8276      2.00000
    240     -16.8150      2.00000
    241     -16.8085      2.00000
    242     -16.8047      2.00000
    243     -16.8029      2.00000
    244     -16.7831      2.00000
    245     -16.7740      2.00000
    246     -16.7624      2.00000
    247     -16.7588      2.00000
    248     -16.7540      2.00000
    249     -16.7461      2.00000
    250     -16.7304      2.00000
    251     -16.7122      2.00000
    252     -16.7081      2.00000
    253     -16.6977      2.00000
    254     -16.6655      2.00000
    255     -16.6489      2.00000
    256     -16.6415      2.00000
    257       4.0030      2.00000
    258       4.6257      2.00000
    259       4.8264      2.00000
    260       5.1112      2.00000
    261       5.3559      2.00000
    262       5.6228      2.00000
    263       5.6627      2.00000
    264       5.7706      2.00000
    265       5.9995      2.00000
    266       6.0522      2.00000
    267       6.0578      2.00000
    268       6.1296      2.00000
    269       6.2634      2.00000
    270       6.2909      2.00000
    271       6.3295      2.00000
    272       6.3373      2.00000
    273       6.3821      2.00000
    274       6.4256      2.00000
    275       6.4326      2.00000
    276       6.4865      2.00000
    277       6.5141      2.00000
    278       6.5552      2.00000
    279       6.5874      2.00000
    280       6.6057      2.00000
    281       6.6242      2.00000
    282       6.6569      2.00000
    283       6.6760      2.00000
    284       6.6810      2.00000
    285       6.7162      2.00000
    286       6.7426      2.00000
    287       6.7654      2.00000
    288       6.7816      2.00000
    289       6.8066      2.00000
    290       6.8312      2.00000
    291       6.8481      2.00000
    292       6.8718      2.00000
    293       6.8840      2.00000
    294       6.9107      2.00000
    295       6.9273      2.00000
    296       6.9655      2.00000
    297       6.9713      2.00000
    298       6.9866      2.00000
    299       7.0020      2.00000
    300       7.0356      2.00000
    301       7.0631      2.00000
    302       7.0764      2.00000
    303       7.0957      2.00000
    304       7.1204      2.00000
    305       7.1531      2.00000
    306       7.1844      2.00000
    307       7.2203      2.00000
    308       7.2272      2.00000
    309       7.2838      2.00000
    310       7.3102      2.00000
    311       7.3395      2.00000
    312       7.3629      2.00000
    313       7.3887      2.00000
    314       7.4113      2.00000
    315       7.4672      2.00000
    316       7.4873      2.00000
    317       7.4993      2.00000
    318       7.5343      2.00000
    319       7.5608      2.00000
    320       7.5745      2.00000
    321       7.5946      2.00000
    322       7.6290      2.00000
    323       7.6641      2.00000
    324       7.6760      2.00000
    325       7.7161      2.00000
    326       7.7448      2.00000
    327       7.7838      2.00000
    328       7.7959      2.00000
    329       7.8855      2.00000
    330       7.9015      2.00000
    331       7.9277      2.00000
    332       7.9401      2.00000
    333       7.9629      2.00000
    334       7.9836      2.00000
    335       8.0208      2.00000
    336       8.0389      2.00000
    337       8.0558      2.00000
    338       8.1027      2.00000
    339       8.1129      2.00000
    340       8.1519      2.00000
    341       8.1741      2.00000
    342       8.1925      2.00000
    343       8.2308      2.00000
    344       8.2438      2.00000
    345       8.2537      2.00000
    346       8.2845      2.00000
    347       8.3541      2.00000
    348       8.3628      2.00000
    349       8.3819      2.00000
    350       8.4163      2.00000
    351       8.4355      2.00000
    352       8.4401      2.00000
    353       8.4700      2.00000
    354       8.4895      2.00000
    355       8.5109      2.00000
    356       8.5305      2.00000
    357       8.5497      2.00000
    358       8.5557      2.00000
    359       8.5881      2.00000
    360       8.6246      2.00000
    361       8.6430      2.00000
    362       8.6673      2.00000
    363       8.6885      2.00000
    364       8.7032      2.00000
    365       8.7427      2.00000
    366       8.7563      2.00000
    367       8.7829      2.00000
    368       8.8189      2.00000
    369       8.8285      2.00000
    370       8.8562      2.00000
    371       8.8862      2.00000
    372       8.9100      2.00000
    373       8.9307      2.00000
    374       8.9702      2.00000
    375       8.9894      2.00000
    376       9.0093      2.00000
    377       9.0323      2.00000
    378       9.0575      2.00000
    379       9.0868      2.00000
    380       9.1070      1.99999
    381       9.1392      1.99952
    382       9.1473      1.99890
    383       9.1814      1.97851
    384       9.2043      1.90125
    385       9.2508      1.26373
    386       9.2769      0.68856
    387       9.2887      0.46215
    388       9.3275      0.06673
    389       9.3503      0.01318
    390       9.3693      0.00257
    391       9.3955      0.00017
    392       9.4095      0.00003
    393       9.4341      0.00000
    394       9.4417      0.00000
    395       9.4787      0.00000
    396       9.4914      0.00000
    397       9.5268      0.00000
    398       9.5503      0.00000
    399       9.5686      0.00000
    400       9.5971      0.00000
    401       9.6137      0.00000
    402       9.6609      0.00000
    403       9.6785      0.00000
    404       9.7058      0.00000
    405       9.7162      0.00000
    406       9.7277      0.00000
    407       9.7508      0.00000
    408       9.7660      0.00000
    409       9.7895      0.00000
    410       9.8086      0.00000
    411       9.8293      0.00000
    412       9.8521      0.00000
    413       9.8832      0.00000
    414       9.9077      0.00000
    415       9.9194      0.00000
    416       9.9563      0.00000
    417       9.9737      0.00000
    418       9.9962      0.00000
    419      10.0163      0.00000
    420      10.0358      0.00000
    421      10.0624      0.00000
    422      10.0698      0.00000
    423      10.0956      0.00000
    424      10.1080      0.00000
    425      10.1256      0.00000
    426      10.1410      0.00000
    427      10.1501      0.00000
    428      10.1878      0.00000
    429      10.1978      0.00000
    430      10.2184      0.00000
    431      10.2352      0.00000
    432      10.2625      0.00000
    433      10.2890      0.00000
    434      10.2930      0.00000
    435      10.3202      0.00000
    436      10.3505      0.00000
    437      10.3672      0.00000
    438      10.3909      0.00000
    439      10.4166      0.00000
    440      10.4411      0.00000
    441      10.4437      0.00000
    442      10.4761      0.00000
    443      10.4902      0.00000
    444      10.5026      0.00000
    445      10.5308      0.00000
    446      10.5593      0.00000
    447      10.5843      0.00000
    448      10.6143      0.00000
    449      10.6390      0.00000
    450      10.6558      0.00000
    451      10.6781      0.00000
    452      10.6949      0.00000
    453      10.7170      0.00000
    454      10.7647      0.00000
    455      10.7937      0.00000
    456      10.8163      0.00000
    457      10.8370      0.00000
    458      10.8699      0.00000
    459      10.8873      0.00000
    460      10.9119      0.00000
    461      10.9363      0.00000
    462      10.9518      0.00000
    463      10.9840      0.00000
    464      11.0105      0.00000

 k-point    18 :      -0.2500   -0.2500    0.2000
  band No.  band energies     occupation 
      1     -45.5192      2.00000
      2     -39.4668      2.00000
      3     -39.4263      2.00000
      4     -39.4097      2.00000
      5     -39.3986      2.00000
      6     -39.3971      2.00000
      7     -39.3856      2.00000
      8     -39.3755      2.00000
      9     -39.3630      2.00000
     10     -39.3593      2.00000
     11     -39.3442      2.00000
     12     -39.3362      2.00000
     13     -39.3310      2.00000
     14     -39.3292      2.00000
     15     -39.3212      2.00000
     16     -39.3096      2.00000
     17     -39.3016      2.00000
     18     -39.2961      2.00000
     19     -39.2931      2.00000
     20     -39.2888      2.00000
     21     -39.2789      2.00000
     22     -39.2738      2.00000
     23     -39.2657      2.00000
     24     -39.2606      2.00000
     25     -39.2483      2.00000
     26     -39.2420      2.00000
     27     -39.2398      2.00000
     28     -39.2379      2.00000
     29     -39.2335      2.00000
     30     -39.2300      2.00000
     31     -39.2256      2.00000
     32     -39.2148      2.00000
     33     -39.2131      2.00000
     34     -39.2042      2.00000
     35     -39.1967      2.00000
     36     -39.1902      2.00000
     37     -39.1787      2.00000
     38     -39.1737      2.00000
     39     -39.1648      2.00000
     40     -39.1542      2.00000
     41     -39.1509      2.00000
     42     -39.1486      2.00000
     43     -39.1461      2.00000
     44     -39.1340      2.00000
     45     -39.1294      2.00000
     46     -39.1228      2.00000
     47     -39.1146      2.00000
     48     -39.1079      2.00000
     49     -39.1055      2.00000
     50     -39.1007      2.00000
     51     -39.0977      2.00000
     52     -39.0943      2.00000
     53     -39.0828      2.00000
     54     -39.0706      2.00000
     55     -39.0638      2.00000
     56     -39.0609      2.00000
     57     -39.0308      2.00000
     58     -39.0253      2.00000
     59     -39.0215      2.00000
     60     -39.0196      2.00000
     61     -39.0150      2.00000
     62     -38.9513      2.00000
     63     -38.9137      2.00000
     64     -38.9132      2.00000
     65     -21.6081      2.00000
     66     -21.5850      2.00000
     67     -21.5569      2.00000
     68     -18.0361      2.00000
     69     -17.9968      2.00000
     70     -17.9815      2.00000
     71     -17.9714      2.00000
     72     -17.9645      2.00000
     73     -17.9479      2.00000
     74     -17.9345      2.00000
     75     -17.9218      2.00000
     76     -17.9154      2.00000
     77     -17.9098      2.00000
     78     -17.9025      2.00000
     79     -17.8926      2.00000
     80     -17.8802      2.00000
     81     -17.8745      2.00000
     82     -17.8655      2.00000
     83     -17.8558      2.00000
     84     -17.8454      2.00000
     85     -17.8381      2.00000
     86     -17.8335      2.00000
     87     -17.8222      2.00000
     88     -17.8147      2.00000
     89     -17.8073      2.00000
     90     -17.8058      2.00000
     91     -17.7932      2.00000
     92     -17.7841      2.00000
     93     -17.7781      2.00000
     94     -17.7732      2.00000
     95     -17.7631      2.00000
     96     -17.7519      2.00000
     97     -17.7467      2.00000
     98     -17.7398      2.00000
     99     -17.7310      2.00000
    100     -17.7265      2.00000
    101     -17.7149      2.00000
    102     -17.7109      2.00000
    103     -17.7019      2.00000
    104     -17.6962      2.00000
    105     -17.6909      2.00000
    106     -17.6820      2.00000
    107     -17.6713      2.00000
    108     -17.6646      2.00000
    109     -17.6577      2.00000
    110     -17.6485      2.00000
    111     -17.6379      2.00000
    112     -17.6347      2.00000
    113     -17.6231      2.00000
    114     -17.6182      2.00000
    115     -17.6119      2.00000
    116     -17.6041      2.00000
    117     -17.5962      2.00000
    118     -17.5895      2.00000
    119     -17.5818      2.00000
    120     -17.5761      2.00000
    121     -17.5726      2.00000
    122     -17.5592      2.00000
    123     -17.5531      2.00000
    124     -17.5358      2.00000
    125     -17.5292      2.00000
    126     -17.5229      2.00000
    127     -17.5141      2.00000
    128     -17.4992      2.00000
    129     -17.4946      2.00000
    130     -17.4921      2.00000
    131     -17.4815      2.00000
    132     -17.4741      2.00000
    133     -17.4634      2.00000
    134     -17.4584      2.00000
    135     -17.4448      2.00000
    136     -17.4347      2.00000
    137     -17.4290      2.00000
    138     -17.4210      2.00000
    139     -17.4089      2.00000
    140     -17.4032      2.00000
    141     -17.3998      2.00000
    142     -17.3900      2.00000
    143     -17.3873      2.00000
    144     -17.3762      2.00000
    145     -17.3618      2.00000
    146     -17.3526      2.00000
    147     -17.3496      2.00000
    148     -17.3402      2.00000
    149     -17.3323      2.00000
    150     -17.3281      2.00000
    151     -17.3255      2.00000
    152     -17.3145      2.00000
    153     -17.3102      2.00000
    154     -17.3009      2.00000
    155     -17.2926      2.00000
    156     -17.2853      2.00000
    157     -17.2804      2.00000
    158     -17.2734      2.00000
    159     -17.2655      2.00000
    160     -17.2613      2.00000
    161     -17.2505      2.00000
    162     -17.2426      2.00000
    163     -17.2372      2.00000
    164     -17.2305      2.00000
    165     -17.2197      2.00000
    166     -17.2189      2.00000
    167     -17.2125      2.00000
    168     -17.2035      2.00000
    169     -17.1996      2.00000
    170     -17.1902      2.00000
    171     -17.1838      2.00000
    172     -17.1785      2.00000
    173     -17.1765      2.00000
    174     -17.1641      2.00000
    175     -17.1583      2.00000
    176     -17.1551      2.00000
    177     -17.1499      2.00000
    178     -17.1431      2.00000
    179     -17.1382      2.00000
    180     -17.1332      2.00000
    181     -17.1317      2.00000
    182     -17.1255      2.00000
    183     -17.1140      2.00000
    184     -17.1107      2.00000
    185     -17.1059      2.00000
    186     -17.1005      2.00000
    187     -17.0959      2.00000
    188     -17.0925      2.00000
    189     -17.0872      2.00000
    190     -17.0843      2.00000
    191     -17.0744      2.00000
    192     -17.0706      2.00000
    193     -17.0672      2.00000
    194     -17.0620      2.00000
    195     -17.0580      2.00000
    196     -17.0568      2.00000
    197     -17.0507      2.00000
    198     -17.0448      2.00000
    199     -17.0369      2.00000
    200     -17.0327      2.00000
    201     -17.0263      2.00000
    202     -17.0228      2.00000
    203     -17.0180      2.00000
    204     -17.0114      2.00000
    205     -17.0056      2.00000
    206     -16.9968      2.00000
    207     -16.9930      2.00000
    208     -16.9882      2.00000
    209     -16.9818      2.00000
    210     -16.9784      2.00000
    211     -16.9719      2.00000
    212     -16.9715      2.00000
    213     -16.9650      2.00000
    214     -16.9598      2.00000
    215     -16.9536      2.00000
    216     -16.9485      2.00000
    217     -16.9452      2.00000
    218     -16.9403      2.00000
    219     -16.9363      2.00000
    220     -16.9301      2.00000
    221     -16.9281      2.00000
    222     -16.9234      2.00000
    223     -16.9189      2.00000
    224     -16.9145      2.00000
    225     -16.9075      2.00000
    226     -16.9016      2.00000
    227     -16.8968      2.00000
    228     -16.8917      2.00000
    229     -16.8829      2.00000
    230     -16.8798      2.00000
    231     -16.8696      2.00000
    232     -16.8662      2.00000
    233     -16.8602      2.00000
    234     -16.8561      2.00000
    235     -16.8493      2.00000
    236     -16.8373      2.00000
    237     -16.8360      2.00000
    238     -16.8278      2.00000
    239     -16.8231      2.00000
    240     -16.8179      2.00000
    241     -16.8147      2.00000
    242     -16.8059      2.00000
    243     -16.7980      2.00000
    244     -16.7852      2.00000
    245     -16.7769      2.00000
    246     -16.7638      2.00000
    247     -16.7597      2.00000
    248     -16.7563      2.00000
    249     -16.7455      2.00000
    250     -16.7279      2.00000
    251     -16.7116      2.00000
    252     -16.7060      2.00000
    253     -16.6977      2.00000
    254     -16.6636      2.00000
    255     -16.6514      2.00000
    256     -16.6419      2.00000
    257       4.0032      2.00000
    258       4.6268      2.00000
    259       4.8269      2.00000
    260       5.1109      2.00000
    261       5.3537      2.00000
    262       5.6236      2.00000
    263       5.6644      2.00000
    264       5.7727      2.00000
    265       6.0039      2.00000
    266       6.0355      2.00000
    267       6.0527      2.00000
    268       6.1326      2.00000
    269       6.2696      2.00000
    270       6.2805      2.00000
    271       6.3322      2.00000
    272       6.3368      2.00000
    273       6.3713      2.00000
    274       6.4257      2.00000
    275       6.4435      2.00000
    276       6.5008      2.00000
    277       6.5231      2.00000
    278       6.5457      2.00000
    279       6.5831      2.00000
    280       6.6044      2.00000
    281       6.6196      2.00000
    282       6.6498      2.00000
    283       6.6814      2.00000
    284       6.6959      2.00000
    285       6.7129      2.00000
    286       6.7468      2.00000
    287       6.7577      2.00000
    288       6.7693      2.00000
    289       6.8089      2.00000
    290       6.8256      2.00000
    291       6.8515      2.00000
    292       6.8781      2.00000
    293       6.8906      2.00000
    294       6.9183      2.00000
    295       6.9329      2.00000
    296       6.9551      2.00000
    297       6.9788      2.00000
    298       7.0055      2.00000
    299       7.0172      2.00000
    300       7.0397      2.00000
    301       7.0472      2.00000
    302       7.0632      2.00000
    303       7.1098      2.00000
    304       7.1171      2.00000
    305       7.1484      2.00000
    306       7.1733      2.00000
    307       7.2097      2.00000
    308       7.2428      2.00000
    309       7.2525      2.00000
    310       7.3213      2.00000
    311       7.3491      2.00000
    312       7.3715      2.00000
    313       7.3934      2.00000
    314       7.4407      2.00000
    315       7.4573      2.00000
    316       7.4791      2.00000
    317       7.4948      2.00000
    318       7.5298      2.00000
    319       7.5505      2.00000
    320       7.5797      2.00000
    321       7.5942      2.00000
    322       7.6184      2.00000
    323       7.6334      2.00000
    324       7.6849      2.00000
    325       7.7171      2.00000
    326       7.7374      2.00000
    327       7.7781      2.00000
    328       7.8154      2.00000
    329       7.8496      2.00000
    330       7.8781      2.00000
    331       7.9316      2.00000
    332       7.9435      2.00000
    333       7.9659      2.00000
    334       7.9858      2.00000
    335       8.0075      2.00000
    336       8.0461      2.00000
    337       8.0812      2.00000
    338       8.1091      2.00000
    339       8.1292      2.00000
    340       8.1495      2.00000
    341       8.1892      2.00000
    342       8.2091      2.00000
    343       8.2200      2.00000
    344       8.2472      2.00000
    345       8.2927      2.00000
    346       8.3010      2.00000
    347       8.3133      2.00000
    348       8.3471      2.00000
    349       8.3757      2.00000
    350       8.3978      2.00000
    351       8.4121      2.00000
    352       8.4256      2.00000
    353       8.4494      2.00000
    354       8.4758      2.00000
    355       8.4975      2.00000
    356       8.5261      2.00000
    357       8.5443      2.00000
    358       8.5659      2.00000
    359       8.6028      2.00000
    360       8.6165      2.00000
    361       8.6540      2.00000
    362       8.6900      2.00000
    363       8.6933      2.00000
    364       8.7206      2.00000
    365       8.7389      2.00000
    366       8.7606      2.00000
    367       8.7732      2.00000
    368       8.8184      2.00000
    369       8.8453      2.00000
    370       8.8632      2.00000
    371       8.8878      2.00000
    372       8.9102      2.00000
    373       8.9442      2.00000
    374       8.9573      2.00000
    375       8.9907      2.00000
    376       9.0150      2.00000
    377       9.0256      2.00000
    378       9.0790      2.00000
    379       9.0963      2.00000
    380       9.1266      1.99988
    381       9.1467      1.99896
    382       9.1632      1.99510
    383       9.1969      1.93733
    384       9.2092      1.87001
    385       9.2542      1.18970
    386       9.2814      0.59653
    387       9.2995      0.29860
    388       9.3287      0.06182
    389       9.3663      0.00340
    390       9.3814      0.00079
    391       9.3966      0.00015
    392       9.4173      0.00001
    393       9.4495      0.00000
    394       9.4730      0.00000
    395       9.4818      0.00000
    396       9.5030      0.00000
    397       9.5226      0.00000
    398       9.5471      0.00000
    399       9.5660      0.00000
    400       9.5944      0.00000
    401       9.6048      0.00000
    402       9.6434      0.00000
    403       9.6673      0.00000
    404       9.6951      0.00000
    405       9.7087      0.00000
    406       9.7306      0.00000
    407       9.7389      0.00000
    408       9.7672      0.00000
    409       9.7984      0.00000
    410       9.8045      0.00000
    411       9.8242      0.00000
    412       9.8491      0.00000
    413       9.8780      0.00000
    414       9.8947      0.00000
    415       9.9151      0.00000
    416       9.9313      0.00000
    417       9.9528      0.00000
    418       9.9637      0.00000
    419       9.9919      0.00000
    420      10.0145      0.00000
    421      10.0238      0.00000
    422      10.0533      0.00000
    423      10.1003      0.00000
    424      10.1051      0.00000
    425      10.1270      0.00000
    426      10.1428      0.00000
    427      10.1679      0.00000
    428      10.1786      0.00000
    429      10.1882      0.00000
    430      10.2221      0.00000
    431      10.2336      0.00000
    432      10.2544      0.00000
    433      10.2836      0.00000
    434      10.3162      0.00000
    435      10.3242      0.00000
    436      10.3468      0.00000
    437      10.3716      0.00000
    438      10.4043      0.00000
    439      10.4153      0.00000
    440      10.4303      0.00000
    441      10.4495      0.00000
    442      10.4634      0.00000
    443      10.4847      0.00000
    444      10.5089      0.00000
    445      10.5381      0.00000
    446      10.5684      0.00000
    447      10.5981      0.00000
    448      10.6284      0.00000
    449      10.6468      0.00000
    450      10.6680      0.00000
    451      10.6871      0.00000
    452      10.7158      0.00000
    453      10.7414      0.00000
    454      10.7573      0.00000
    455      10.7891      0.00000
    456      10.8040      0.00000
    457      10.8139      0.00000
    458      10.8499      0.00000
    459      10.8726      0.00000
    460      10.9034      0.00000
    461      10.9489      0.00000
    462      10.9677      0.00000
    463      10.9930      0.00000
    464      11.0308      0.00000

 k-point    19 :      -0.2500    0.2500   -0.2000
  band No.  band energies     occupation 
      1     -45.5192      2.00000
      2     -39.4668      2.00000
      3     -39.4258      2.00000
      4     -39.4106      2.00000
      5     -39.3992      2.00000
      6     -39.3960      2.00000
      7     -39.3855      2.00000
      8     -39.3752      2.00000
      9     -39.3637      2.00000
     10     -39.3582      2.00000
     11     -39.3429      2.00000
     12     -39.3372      2.00000
     13     -39.3341      2.00000
     14     -39.3294      2.00000
     15     -39.3190      2.00000
     16     -39.3076      2.00000
     17     -39.3033      2.00000
     18     -39.2956      2.00000
     19     -39.2938      2.00000
     20     -39.2887      2.00000
     21     -39.2785      2.00000
     22     -39.2754      2.00000
     23     -39.2646      2.00000
     24     -39.2608      2.00000
     25     -39.2484      2.00000
     26     -39.2421      2.00000
     27     -39.2392      2.00000
     28     -39.2360      2.00000
     29     -39.2332      2.00000
     30     -39.2304      2.00000
     31     -39.2261      2.00000
     32     -39.2176      2.00000
     33     -39.2128      2.00000
     34     -39.2047      2.00000
     35     -39.1961      2.00000
     36     -39.1882      2.00000
     37     -39.1810      2.00000
     38     -39.1719      2.00000
     39     -39.1652      2.00000
     40     -39.1552      2.00000
     41     -39.1510      2.00000
     42     -39.1476      2.00000
     43     -39.1457      2.00000
     44     -39.1348      2.00000
     45     -39.1288      2.00000
     46     -39.1231      2.00000
     47     -39.1140      2.00000
     48     -39.1090      2.00000
     49     -39.1044      2.00000
     50     -39.1016      2.00000
     51     -39.0976      2.00000
     52     -39.0942      2.00000
     53     -39.0827      2.00000
     54     -39.0705      2.00000
     55     -39.0638      2.00000
     56     -39.0610      2.00000
     57     -39.0307      2.00000
     58     -39.0253      2.00000
     59     -39.0215      2.00000
     60     -39.0197      2.00000
     61     -39.0150      2.00000
     62     -38.9513      2.00000
     63     -38.9137      2.00000
     64     -38.9132      2.00000
     65     -21.6081      2.00000
     66     -21.5850      2.00000
     67     -21.5569      2.00000
     68     -18.0372      2.00000
     69     -17.9953      2.00000
     70     -17.9779      2.00000
     71     -17.9715      2.00000
     72     -17.9627      2.00000
     73     -17.9460      2.00000
     74     -17.9422      2.00000
     75     -17.9245      2.00000
     76     -17.9196      2.00000
     77     -17.9094      2.00000
     78     -17.9025      2.00000
     79     -17.8918      2.00000
     80     -17.8840      2.00000
     81     -17.8746      2.00000
     82     -17.8595      2.00000
     83     -17.8566      2.00000
     84     -17.8488      2.00000
     85     -17.8350      2.00000
     86     -17.8275      2.00000
     87     -17.8228      2.00000
     88     -17.8147      2.00000
     89     -17.8086      2.00000
     90     -17.7998      2.00000
     91     -17.7906      2.00000
     92     -17.7839      2.00000
     93     -17.7754      2.00000
     94     -17.7674      2.00000
     95     -17.7653      2.00000
     96     -17.7580      2.00000
     97     -17.7445      2.00000
     98     -17.7367      2.00000
     99     -17.7315      2.00000
    100     -17.7265      2.00000
    101     -17.7177      2.00000
    102     -17.7105      2.00000
    103     -17.7015      2.00000
    104     -17.7006      2.00000
    105     -17.6905      2.00000
    106     -17.6793      2.00000
    107     -17.6762      2.00000
    108     -17.6681      2.00000
    109     -17.6608      2.00000
    110     -17.6501      2.00000
    111     -17.6392      2.00000
    112     -17.6330      2.00000
    113     -17.6265      2.00000
    114     -17.6205      2.00000
    115     -17.6167      2.00000
    116     -17.6076      2.00000
    117     -17.5945      2.00000
    118     -17.5883      2.00000
    119     -17.5808      2.00000
    120     -17.5774      2.00000
    121     -17.5671      2.00000
    122     -17.5612      2.00000
    123     -17.5503      2.00000
    124     -17.5382      2.00000
    125     -17.5304      2.00000
    126     -17.5227      2.00000
    127     -17.5115      2.00000
    128     -17.5042      2.00000
    129     -17.4967      2.00000
    130     -17.4842      2.00000
    131     -17.4784      2.00000
    132     -17.4708      2.00000
    133     -17.4602      2.00000
    134     -17.4586      2.00000
    135     -17.4420      2.00000
    136     -17.4340      2.00000
    137     -17.4293      2.00000
    138     -17.4211      2.00000
    139     -17.4127      2.00000
    140     -17.4055      2.00000
    141     -17.3948      2.00000
    142     -17.3891      2.00000
    143     -17.3806      2.00000
    144     -17.3731      2.00000
    145     -17.3655      2.00000
    146     -17.3574      2.00000
    147     -17.3468      2.00000
    148     -17.3371      2.00000
    149     -17.3337      2.00000
    150     -17.3295      2.00000
    151     -17.3237      2.00000
    152     -17.3199      2.00000
    153     -17.3046      2.00000
    154     -17.2983      2.00000
    155     -17.2942      2.00000
    156     -17.2872      2.00000
    157     -17.2775      2.00000
    158     -17.2712      2.00000
    159     -17.2670      2.00000
    160     -17.2579      2.00000
    161     -17.2502      2.00000
    162     -17.2438      2.00000
    163     -17.2393      2.00000
    164     -17.2337      2.00000
    165     -17.2270      2.00000
    166     -17.2194      2.00000
    167     -17.2116      2.00000
    168     -17.2085      2.00000
    169     -17.2034      2.00000
    170     -17.1914      2.00000
    171     -17.1867      2.00000
    172     -17.1771      2.00000
    173     -17.1692      2.00000
    174     -17.1628      2.00000
    175     -17.1585      2.00000
    176     -17.1557      2.00000
    177     -17.1528      2.00000
    178     -17.1488      2.00000
    179     -17.1402      2.00000
    180     -17.1351      2.00000
    181     -17.1283      2.00000
    182     -17.1195      2.00000
    183     -17.1151      2.00000
    184     -17.1104      2.00000
    185     -17.1040      2.00000
    186     -17.1019      2.00000
    187     -17.0984      2.00000
    188     -17.0948      2.00000
    189     -17.0908      2.00000
    190     -17.0868      2.00000
    191     -17.0787      2.00000
    192     -17.0774      2.00000
    193     -17.0665      2.00000
    194     -17.0585      2.00000
    195     -17.0556      2.00000
    196     -17.0495      2.00000
    197     -17.0461      2.00000
    198     -17.0400      2.00000
    199     -17.0348      2.00000
    200     -17.0319      2.00000
    201     -17.0241      2.00000
    202     -17.0190      2.00000
    203     -17.0137      2.00000
    204     -17.0072      2.00000
    205     -17.0052      2.00000
    206     -17.0017      2.00000
    207     -16.9942      2.00000
    208     -16.9907      2.00000
    209     -16.9861      2.00000
    210     -16.9792      2.00000
    211     -16.9752      2.00000
    212     -16.9711      2.00000
    213     -16.9683      2.00000
    214     -16.9619      2.00000
    215     -16.9544      2.00000
    216     -16.9515      2.00000
    217     -16.9472      2.00000
    218     -16.9397      2.00000
    219     -16.9332      2.00000
    220     -16.9293      2.00000
    221     -16.9251      2.00000
    222     -16.9212      2.00000
    223     -16.9139      2.00000
    224     -16.9096      2.00000
    225     -16.9069      2.00000
    226     -16.9059      2.00000
    227     -16.8949      2.00000
    228     -16.8889      2.00000
    229     -16.8854      2.00000
    230     -16.8785      2.00000
    231     -16.8739      2.00000
    232     -16.8648      2.00000
    233     -16.8622      2.00000
    234     -16.8548      2.00000
    235     -16.8500      2.00000
    236     -16.8416      2.00000
    237     -16.8348      2.00000
    238     -16.8295      2.00000
    239     -16.8193      2.00000
    240     -16.8181      2.00000
    241     -16.8126      2.00000
    242     -16.8067      2.00000
    243     -16.7956      2.00000
    244     -16.7858      2.00000
    245     -16.7756      2.00000
    246     -16.7700      2.00000
    247     -16.7612      2.00000
    248     -16.7553      2.00000
    249     -16.7451      2.00000
    250     -16.7299      2.00000
    251     -16.7098      2.00000
    252     -16.7056      2.00000
    253     -16.6983      2.00000
    254     -16.6616      2.00000
    255     -16.6517      2.00000
    256     -16.6426      2.00000
    257       4.0029      2.00000
    258       4.6289      2.00000
    259       4.8268      2.00000
    260       5.1107      2.00000
    261       5.3509      2.00000
    262       5.6210      2.00000
    263       5.6586      2.00000
    264       5.7716      2.00000
    265       5.9903      2.00000
    266       6.0464      2.00000
    267       6.0792      2.00000
    268       6.1380      2.00000
    269       6.2722      2.00000
    270       6.2997      2.00000
    271       6.3208      2.00000
    272       6.3419      2.00000
    273       6.3669      2.00000
    274       6.4066      2.00000
    275       6.4351      2.00000
    276       6.4586      2.00000
    277       6.5175      2.00000
    278       6.5491      2.00000
    279       6.5889      2.00000
    280       6.6440      2.00000
    281       6.6506      2.00000
    282       6.6778      2.00000
    283       6.6817      2.00000
    284       6.6967      2.00000
    285       6.7151      2.00000
    286       6.7262      2.00000
    287       6.7436      2.00000
    288       6.7705      2.00000
    289       6.7975      2.00000
    290       6.8200      2.00000
    291       6.8494      2.00000
    292       6.8713      2.00000
    293       6.8898      2.00000
    294       6.9204      2.00000
    295       6.9264      2.00000
    296       6.9550      2.00000
    297       6.9716      2.00000
    298       6.9825      2.00000
    299       6.9997      2.00000
    300       7.0308      2.00000
    301       7.0567      2.00000
    302       7.0753      2.00000
    303       7.1065      2.00000
    304       7.1298      2.00000
    305       7.1567      2.00000
    306       7.1642      2.00000
    307       7.1803      2.00000
    308       7.2362      2.00000
    309       7.2922      2.00000
    310       7.3193      2.00000
    311       7.3558      2.00000
    312       7.3749      2.00000
    313       7.4015      2.00000
    314       7.4180      2.00000
    315       7.4562      2.00000
    316       7.4704      2.00000
    317       7.5140      2.00000
    318       7.5349      2.00000
    319       7.5438      2.00000
    320       7.5670      2.00000
    321       7.6103      2.00000
    322       7.6286      2.00000
    323       7.6344      2.00000
    324       7.6785      2.00000
    325       7.7182      2.00000
    326       7.7373      2.00000
    327       7.7822      2.00000
    328       7.8132      2.00000
    329       7.8736      2.00000
    330       7.8962      2.00000
    331       7.9230      2.00000
    332       7.9682      2.00000
    333       7.9843      2.00000
    334       7.9925      2.00000
    335       8.0362      2.00000
    336       8.0562      2.00000
    337       8.0796      2.00000
    338       8.1081      2.00000
    339       8.1239      2.00000
    340       8.1481      2.00000
    341       8.1650      2.00000
    342       8.1839      2.00000
    343       8.1987      2.00000
    344       8.2350      2.00000
    345       8.2795      2.00000
    346       8.3043      2.00000
    347       8.3193      2.00000
    348       8.3417      2.00000
    349       8.3649      2.00000
    350       8.3861      2.00000
    351       8.4008      2.00000
    352       8.4295      2.00000
    353       8.4580      2.00000
    354       8.4818      2.00000
    355       8.5073      2.00000
    356       8.5254      2.00000
    357       8.5606      2.00000
    358       8.5714      2.00000
    359       8.5842      2.00000
    360       8.6252      2.00000
    361       8.6552      2.00000
    362       8.6824      2.00000
    363       8.6989      2.00000
    364       8.7228      2.00000
    365       8.7352      2.00000
    366       8.7562      2.00000
    367       8.7882      2.00000
    368       8.8054      2.00000
    369       8.8299      2.00000
    370       8.8562      2.00000
    371       8.8681      2.00000
    372       8.8916      2.00000
    373       8.9376      2.00000
    374       8.9732      2.00000
    375       8.9902      2.00000
    376       9.0110      2.00000
    377       9.0430      2.00000
    378       9.0597      2.00000
    379       9.0886      2.00000
    380       9.1105      1.99998
    381       9.1398      1.99949
    382       9.1764      1.98540
    383       9.1947      1.94564
    384       9.2334      1.59292
    385       9.2451      1.38215
    386       9.2977      0.32194
    387       9.3087      0.19323
    388       9.3345      0.04228
    389       9.3493      0.01434
    390       9.3762      0.00132
    391       9.4049      0.00006
    392       9.4192      0.00001
    393       9.4396      0.00000
    394       9.4534      0.00000
    395       9.4767      0.00000
    396       9.4974      0.00000
    397       9.5428      0.00000
    398       9.5644      0.00000
    399       9.5784      0.00000
    400       9.5971      0.00000
    401       9.6165      0.00000
    402       9.6248      0.00000
    403       9.6618      0.00000
    404       9.6907      0.00000
    405       9.7105      0.00000
    406       9.7316      0.00000
    407       9.7538      0.00000
    408       9.7627      0.00000
    409       9.7903      0.00000
    410       9.8287      0.00000
    411       9.8359      0.00000
    412       9.8674      0.00000
    413       9.8823      0.00000
    414       9.9113      0.00000
    415       9.9185      0.00000
    416       9.9428      0.00000
    417       9.9486      0.00000
    418       9.9778      0.00000
    419       9.9952      0.00000
    420      10.0183      0.00000
    421      10.0476      0.00000
    422      10.0696      0.00000
    423      10.0827      0.00000
    424      10.1003      0.00000
    425      10.1273      0.00000
    426      10.1466      0.00000
    427      10.1569      0.00000
    428      10.1751      0.00000
    429      10.1908      0.00000
    430      10.2168      0.00000
    431      10.2441      0.00000
    432      10.2586      0.00000
    433      10.2839      0.00000
    434      10.3111      0.00000
    435      10.3257      0.00000
    436      10.3438      0.00000
    437      10.3676      0.00000
    438      10.3781      0.00000
    439      10.4137      0.00000
    440      10.4268      0.00000
    441      10.4341      0.00000
    442      10.4580      0.00000
    443      10.4882      0.00000
    444      10.5284      0.00000
    445      10.5474      0.00000
    446      10.5643      0.00000
    447      10.5803      0.00000
    448      10.6181      0.00000
    449      10.6417      0.00000
    450      10.6640      0.00000
    451      10.6759      0.00000
    452      10.7143      0.00000
    453      10.7277      0.00000
    454      10.7483      0.00000
    455      10.7702      0.00000
    456      10.7932      0.00000
    457      10.8148      0.00000
    458      10.8448      0.00000
    459      10.8725      0.00000
    460      10.9079      0.00000
    461      10.9276      0.00000
    462      10.9445      0.00000
    463      10.9971      0.00000
    464      11.0163      0.00000

 k-point    20 :       0.2500   -0.2500   -0.2000
  band No.  band energies     occupation 
      1     -45.5192      2.00000
      2     -39.4668      2.00000
      3     -39.4260      2.00000
      4     -39.4100      2.00000
      5     -39.3985      2.00000
      6     -39.3966      2.00000
      7     -39.3870      2.00000
      8     -39.3748      2.00000
      9     -39.3639      2.00000
     10     -39.3563      2.00000
     11     -39.3434      2.00000
     12     -39.3391      2.00000
     13     -39.3322      2.00000
     14     -39.3291      2.00000
     15     -39.3191      2.00000
     16     -39.3079      2.00000
     17     -39.3047      2.00000
     18     -39.2956      2.00000
     19     -39.2930      2.00000
     20     -39.2902      2.00000
     21     -39.2771      2.00000
     22     -39.2721      2.00000
     23     -39.2677      2.00000
     24     -39.2598      2.00000
     25     -39.2483      2.00000
     26     -39.2431      2.00000
     27     -39.2395      2.00000
     28     -39.2373      2.00000
     29     -39.2355      2.00000
     30     -39.2289      2.00000
     31     -39.2258      2.00000
     32     -39.2149      2.00000
     33     -39.2119      2.00000
     34     -39.2034      2.00000
     35     -39.1968      2.00000
     36     -39.1910      2.00000
     37     -39.1790      2.00000
     38     -39.1740      2.00000
     39     -39.1647      2.00000
     40     -39.1542      2.00000
     41     -39.1506      2.00000
     42     -39.1487      2.00000
     43     -39.1457      2.00000
     44     -39.1354      2.00000
     45     -39.1290      2.00000
     46     -39.1226      2.00000
     47     -39.1144      2.00000
     48     -39.1078      2.00000
     49     -39.1048      2.00000
     50     -39.1009      2.00000
     51     -39.0986      2.00000
     52     -39.0939      2.00000
     53     -39.0828      2.00000
     54     -39.0705      2.00000
     55     -39.0638      2.00000
     56     -39.0610      2.00000
     57     -39.0307      2.00000
     58     -39.0253      2.00000
     59     -39.0215      2.00000
     60     -39.0197      2.00000
     61     -39.0150      2.00000
     62     -38.9513      2.00000
     63     -38.9137      2.00000
     64     -38.9131      2.00000
     65     -21.6081      2.00000
     66     -21.5850      2.00000
     67     -21.5569      2.00000
     68     -18.0377      2.00000
     69     -17.9913      2.00000
     70     -17.9787      2.00000
     71     -17.9745      2.00000
     72     -17.9629      2.00000
     73     -17.9483      2.00000
     74     -17.9411      2.00000
     75     -17.9297      2.00000
     76     -17.9143      2.00000
     77     -17.9072      2.00000
     78     -17.9026      2.00000
     79     -17.8953      2.00000
     80     -17.8830      2.00000
     81     -17.8758      2.00000
     82     -17.8609      2.00000
     83     -17.8524      2.00000
     84     -17.8469      2.00000
     85     -17.8339      2.00000
     86     -17.8290      2.00000
     87     -17.8219      2.00000
     88     -17.8145      2.00000
     89     -17.8094      2.00000
     90     -17.7987      2.00000
     91     -17.7943      2.00000
     92     -17.7820      2.00000
     93     -17.7699      2.00000
     94     -17.7689      2.00000
     95     -17.7590      2.00000
     96     -17.7560      2.00000
     97     -17.7468      2.00000
     98     -17.7437      2.00000
     99     -17.7370      2.00000
    100     -17.7267      2.00000
    101     -17.7216      2.00000
    102     -17.7122      2.00000
    103     -17.7036      2.00000
    104     -17.6994      2.00000
    105     -17.6865      2.00000
    106     -17.6758      2.00000
    107     -17.6723      2.00000
    108     -17.6636      2.00000
    109     -17.6543      2.00000
    110     -17.6486      2.00000
    111     -17.6405      2.00000
    112     -17.6363      2.00000
    113     -17.6310      2.00000
    114     -17.6262      2.00000
    115     -17.6156      2.00000
    116     -17.6111      2.00000
    117     -17.6016      2.00000
    118     -17.5942      2.00000
    119     -17.5877      2.00000
    120     -17.5724      2.00000
    121     -17.5676      2.00000
    122     -17.5521      2.00000
    123     -17.5478      2.00000
    124     -17.5375      2.00000
    125     -17.5306      2.00000
    126     -17.5281      2.00000
    127     -17.5061      2.00000
    128     -17.4982      2.00000
    129     -17.4902      2.00000
    130     -17.4827      2.00000
    131     -17.4775      2.00000
    132     -17.4697      2.00000
    133     -17.4627      2.00000
    134     -17.4525      2.00000
    135     -17.4468      2.00000
    136     -17.4415      2.00000
    137     -17.4259      2.00000
    138     -17.4190      2.00000
    139     -17.4132      2.00000
    140     -17.4032      2.00000
    141     -17.3976      2.00000
    142     -17.3888      2.00000
    143     -17.3835      2.00000
    144     -17.3717      2.00000
    145     -17.3646      2.00000
    146     -17.3599      2.00000
    147     -17.3469      2.00000
    148     -17.3427      2.00000
    149     -17.3371      2.00000
    150     -17.3299      2.00000
    151     -17.3200      2.00000
    152     -17.3137      2.00000
    153     -17.3098      2.00000
    154     -17.3038      2.00000
    155     -17.2956      2.00000
    156     -17.2873      2.00000
    157     -17.2800      2.00000
    158     -17.2693      2.00000
    159     -17.2644      2.00000
    160     -17.2599      2.00000
    161     -17.2543      2.00000
    162     -17.2505      2.00000
    163     -17.2402      2.00000
    164     -17.2319      2.00000
    165     -17.2252      2.00000
    166     -17.2201      2.00000
    167     -17.2106      2.00000
    168     -17.2031      2.00000
    169     -17.1961      2.00000
    170     -17.1908      2.00000
    171     -17.1822      2.00000
    172     -17.1744      2.00000
    173     -17.1704      2.00000
    174     -17.1658      2.00000
    175     -17.1639      2.00000
    176     -17.1520      2.00000
    177     -17.1500      2.00000
    178     -17.1447      2.00000
    179     -17.1378      2.00000
    180     -17.1325      2.00000
    181     -17.1283      2.00000
    182     -17.1225      2.00000
    183     -17.1174      2.00000
    184     -17.1143      2.00000
    185     -17.1052      2.00000
    186     -17.1021      2.00000
    187     -17.0963      2.00000
    188     -17.0907      2.00000
    189     -17.0881      2.00000
    190     -17.0825      2.00000
    191     -17.0765      2.00000
    192     -17.0711      2.00000
    193     -17.0688      2.00000
    194     -17.0663      2.00000
    195     -17.0614      2.00000
    196     -17.0530      2.00000
    197     -17.0470      2.00000
    198     -17.0424      2.00000
    199     -17.0348      2.00000
    200     -17.0294      2.00000
    201     -17.0262      2.00000
    202     -17.0200      2.00000
    203     -17.0178      2.00000
    204     -17.0075      2.00000
    205     -17.0022      2.00000
    206     -17.0001      2.00000
    207     -16.9955      2.00000
    208     -16.9918      2.00000
    209     -16.9856      2.00000
    210     -16.9786      2.00000
    211     -16.9725      2.00000
    212     -16.9688      2.00000
    213     -16.9641      2.00000
    214     -16.9603      2.00000
    215     -16.9567      2.00000
    216     -16.9465      2.00000
    217     -16.9456      2.00000
    218     -16.9407      2.00000
    219     -16.9373      2.00000
    220     -16.9330      2.00000
    221     -16.9247      2.00000
    222     -16.9227      2.00000
    223     -16.9188      2.00000
    224     -16.9124      2.00000
    225     -16.9073      2.00000
    226     -16.9020      2.00000
    227     -16.8979      2.00000
    228     -16.8896      2.00000
    229     -16.8863      2.00000
    230     -16.8771      2.00000
    231     -16.8712      2.00000
    232     -16.8640      2.00000
    233     -16.8608      2.00000
    234     -16.8536      2.00000
    235     -16.8509      2.00000
    236     -16.8429      2.00000
    237     -16.8383      2.00000
    238     -16.8310      2.00000
    239     -16.8204      2.00000
    240     -16.8179      2.00000
    241     -16.8109      2.00000
    242     -16.8040      2.00000
    243     -16.8001      2.00000
    244     -16.7824      2.00000
    245     -16.7769      2.00000
    246     -16.7614      2.00000
    247     -16.7589      2.00000
    248     -16.7538      2.00000
    249     -16.7461      2.00000
    250     -16.7300      2.00000
    251     -16.7144      2.00000
    252     -16.7095      2.00000
    253     -16.6968      2.00000
    254     -16.6644      2.00000
    255     -16.6484      2.00000
    256     -16.6424      2.00000
    257       4.0027      2.00000
    258       4.6281      2.00000
    259       4.8264      2.00000
    260       5.1118      2.00000
    261       5.3524      2.00000
    262       5.6196      2.00000
    263       5.6526      2.00000
    264       5.7730      2.00000
    265       5.9963      2.00000
    266       6.0449      2.00000
    267       6.0871      2.00000
    268       6.1359      2.00000
    269       6.2799      2.00000
    270       6.2921      2.00000
    271       6.3295      2.00000
    272       6.3422      2.00000
    273       6.3665      2.00000
    274       6.4086      2.00000
    275       6.4416      2.00000
    276       6.4578      2.00000
    277       6.5102      2.00000
    278       6.5503      2.00000
    279       6.5931      2.00000
    280       6.6319      2.00000
    281       6.6599      2.00000
    282       6.6703      2.00000
    283       6.6811      2.00000
    284       6.6940      2.00000
    285       6.7064      2.00000
    286       6.7410      2.00000
    287       6.7529      2.00000
    288       6.7708      2.00000
    289       6.7909      2.00000
    290       6.8030      2.00000
    291       6.8257      2.00000
    292       6.8456      2.00000
    293       6.8841      2.00000
    294       6.8977      2.00000
    295       6.9191      2.00000
    296       6.9375      2.00000
    297       6.9729      2.00000
    298       6.9864      2.00000
    299       7.0096      2.00000
    300       7.0386      2.00000
    301       7.0592      2.00000
    302       7.0833      2.00000
    303       7.1117      2.00000
    304       7.1480      2.00000
    305       7.1816      2.00000
    306       7.2020      2.00000
    307       7.2121      2.00000
    308       7.2329      2.00000
    309       7.3011      2.00000
    310       7.3348      2.00000
    311       7.3538      2.00000
    312       7.3802      2.00000
    313       7.4107      2.00000
    314       7.4189      2.00000
    315       7.4490      2.00000
    316       7.4687      2.00000
    317       7.4968      2.00000
    318       7.5134      2.00000
    319       7.5254      2.00000
    320       7.5687      2.00000
    321       7.5971      2.00000
    322       7.6200      2.00000
    323       7.6722      2.00000
    324       7.6849      2.00000
    325       7.6922      2.00000
    326       7.7594      2.00000
    327       7.7909      2.00000
    328       7.8137      2.00000
    329       7.8623      2.00000
    330       7.9008      2.00000
    331       7.9304      2.00000
    332       7.9454      2.00000
    333       7.9800      2.00000
    334       8.0050      2.00000
    335       8.0227      2.00000
    336       8.0545      2.00000
    337       8.0712      2.00000
    338       8.1011      2.00000
    339       8.1140      2.00000
    340       8.1321      2.00000
    341       8.1511      2.00000
    342       8.1739      2.00000
    343       8.2120      2.00000
    344       8.2489      2.00000
    345       8.2683      2.00000
    346       8.2953      2.00000
    347       8.3277      2.00000
    348       8.3416      2.00000
    349       8.3672      2.00000
    350       8.3811      2.00000
    351       8.3999      2.00000
    352       8.4479      2.00000
    353       8.4673      2.00000
    354       8.4779      2.00000
    355       8.5003      2.00000
    356       8.5141      2.00000
    357       8.5428      2.00000
    358       8.5869      2.00000
    359       8.6029      2.00000
    360       8.6201      2.00000
    361       8.6446      2.00000
    362       8.6657      2.00000
    363       8.7215      2.00000
    364       8.7332      2.00000
    365       8.7496      2.00000
    366       8.7739      2.00000
    367       8.8000      2.00000
    368       8.8242      2.00000
    369       8.8395      2.00000
    370       8.8684      2.00000
    371       8.8929      2.00000
    372       8.9239      2.00000
    373       8.9585      2.00000
    374       8.9671      2.00000
    375       8.9812      2.00000
    376       9.0002      2.00000
    377       9.0349      2.00000
    378       9.0470      2.00000
    379       9.0799      2.00000
    380       9.0973      2.00000
    381       9.1279      1.99986
    382       9.1533      1.99802
    383       9.1959      1.94115
    384       9.2099      1.86467
    385       9.2229      1.73952
    386       9.2739      0.75166
    387       9.2962      0.34326
    388       9.3207      0.10089
    389       9.3422      0.02447
    390       9.3600      0.00594
    391       9.4061      0.00005
    392       9.4177      0.00001
    393       9.4405      0.00000
    394       9.4582      0.00000
    395       9.4747      0.00000
    396       9.5207      0.00000
    397       9.5316      0.00000
    398       9.5458      0.00000
    399       9.5631      0.00000
    400       9.5845      0.00000
    401       9.6014      0.00000
    402       9.6342      0.00000
    403       9.6521      0.00000
    404       9.6777      0.00000
    405       9.6982      0.00000
    406       9.7269      0.00000
    407       9.7306      0.00000
    408       9.7591      0.00000
    409       9.7902      0.00000
    410       9.8204      0.00000
    411       9.8329      0.00000
    412       9.8518      0.00000
    413       9.8782      0.00000
    414       9.9109      0.00000
    415       9.9261      0.00000
    416       9.9379      0.00000
    417       9.9583      0.00000
    418       9.9848      0.00000
    419      10.0133      0.00000
    420      10.0350      0.00000
    421      10.0554      0.00000
    422      10.0738      0.00000
    423      10.0932      0.00000
    424      10.1217      0.00000
    425      10.1344      0.00000
    426      10.1635      0.00000
    427      10.1713      0.00000
    428      10.1933      0.00000
    429      10.2054      0.00000
    430      10.2350      0.00000
    431      10.2595      0.00000
    432      10.2733      0.00000
    433      10.2811      0.00000
    434      10.3109      0.00000
    435      10.3443      0.00000
    436      10.3558      0.00000
    437      10.3812      0.00000
    438      10.3899      0.00000
    439      10.4118      0.00000
    440      10.4328      0.00000
    441      10.4516      0.00000
    442      10.4835      0.00000
    443      10.4927      0.00000
    444      10.5315      0.00000
    445      10.5425      0.00000
    446      10.5656      0.00000
    447      10.5846      0.00000
    448      10.6046      0.00000
    449      10.6279      0.00000
    450      10.6674      0.00000
    451      10.6920      0.00000
    452      10.7043      0.00000
    453      10.7266      0.00000
    454      10.7550      0.00000
    455      10.7723      0.00000
    456      10.7886      0.00000
    457      10.8153      0.00000
    458      10.8423      0.00000
    459      10.8588      0.00000
    460      10.8739      0.00000
    461      10.9335      0.00000
    462      10.9530      0.00000
    463      10.9941      0.00000
    464      11.0023      0.00000

 k-point    21 :       0.5000    0.2500    0.2000
  band No.  band energies     occupation 
      1     -45.5192      2.00000
      2     -39.4666      2.00000
      3     -39.4253      2.00000
      4     -39.4109      2.00000
      5     -39.3991      2.00000
      6     -39.3967      2.00000
      7     -39.3868      2.00000
      8     -39.3749      2.00000
      9     -39.3644      2.00000
     10     -39.3560      2.00000
     11     -39.3434      2.00000
     12     -39.3385      2.00000
     13     -39.3307      2.00000
     14     -39.3294      2.00000
     15     -39.3210      2.00000
     16     -39.3086      2.00000
     17     -39.3036      2.00000
     18     -39.2953      2.00000
     19     -39.2931      2.00000
     20     -39.2902      2.00000
     21     -39.2768      2.00000
     22     -39.2721      2.00000
     23     -39.2682      2.00000
     24     -39.2598      2.00000
     25     -39.2480      2.00000
     26     -39.2420      2.00000
     27     -39.2396      2.00000
     28     -39.2373      2.00000
     29     -39.2353      2.00000
     30     -39.2302      2.00000
     31     -39.2246      2.00000
     32     -39.2157      2.00000
     33     -39.2118      2.00000
     34     -39.2035      2.00000
     35     -39.1977      2.00000
     36     -39.1901      2.00000
     37     -39.1804      2.00000
     38     -39.1727      2.00000
     39     -39.1644      2.00000
     40     -39.1542      2.00000
     41     -39.1514      2.00000
     42     -39.1487      2.00000
     43     -39.1455      2.00000
     44     -39.1359      2.00000
     45     -39.1282      2.00000
     46     -39.1228      2.00000
     47     -39.1144      2.00000
     48     -39.1065      2.00000
     49     -39.1054      2.00000
     50     -39.1018      2.00000
     51     -39.0985      2.00000
     52     -39.0937      2.00000
     53     -39.0829      2.00000
     54     -39.0704      2.00000
     55     -39.0638      2.00000
     56     -39.0609      2.00000
     57     -39.0308      2.00000
     58     -39.0253      2.00000
     59     -39.0214      2.00000
     60     -39.0198      2.00000
     61     -39.0150      2.00000
     62     -38.9513      2.00000
     63     -38.9137      2.00000
     64     -38.9131      2.00000
     65     -21.6081      2.00000
     66     -21.5850      2.00000
     67     -21.5569      2.00000
     68     -18.0348      2.00000
     69     -17.9903      2.00000
     70     -17.9758      2.00000
     71     -17.9696      2.00000
     72     -17.9563      2.00000
     73     -17.9522      2.00000
     74     -17.9392      2.00000
     75     -17.9234      2.00000
     76     -17.9135      2.00000
     77     -17.9089      2.00000
     78     -17.8989      2.00000
     79     -17.8895      2.00000
     80     -17.8848      2.00000
     81     -17.8718      2.00000
     82     -17.8618      2.00000
     83     -17.8552      2.00000
     84     -17.8449      2.00000
     85     -17.8379      2.00000
     86     -17.8317      2.00000
     87     -17.8259      2.00000
     88     -17.8176      2.00000
     89     -17.8098      2.00000
     90     -17.8029      2.00000
     91     -17.7917      2.00000
     92     -17.7864      2.00000
     93     -17.7771      2.00000
     94     -17.7663      2.00000
     95     -17.7628      2.00000
     96     -17.7604      2.00000
     97     -17.7538      2.00000
     98     -17.7395      2.00000
     99     -17.7323      2.00000
    100     -17.7246      2.00000
    101     -17.7218      2.00000
    102     -17.7136      2.00000
    103     -17.7016      2.00000
    104     -17.6980      2.00000
    105     -17.6901      2.00000
    106     -17.6789      2.00000
    107     -17.6728      2.00000
    108     -17.6648      2.00000
    109     -17.6571      2.00000
    110     -17.6457      2.00000
    111     -17.6390      2.00000
    112     -17.6317      2.00000
    113     -17.6252      2.00000
    114     -17.6206      2.00000
    115     -17.6131      2.00000
    116     -17.6048      2.00000
    117     -17.6025      2.00000
    118     -17.5882      2.00000
    119     -17.5860      2.00000
    120     -17.5781      2.00000
    121     -17.5719      2.00000
    122     -17.5655      2.00000
    123     -17.5610      2.00000
    124     -17.5456      2.00000
    125     -17.5360      2.00000
    126     -17.5267      2.00000
    127     -17.5145      2.00000
    128     -17.5064      2.00000
    129     -17.5019      2.00000
    130     -17.4925      2.00000
    131     -17.4815      2.00000
    132     -17.4751      2.00000
    133     -17.4636      2.00000
    134     -17.4566      2.00000
    135     -17.4461      2.00000
    136     -17.4443      2.00000
    137     -17.4336      2.00000
    138     -17.4254      2.00000
    139     -17.4121      2.00000
    140     -17.4081      2.00000
    141     -17.3980      2.00000
    142     -17.3840      2.00000
    143     -17.3776      2.00000
    144     -17.3663      2.00000
    145     -17.3583      2.00000
    146     -17.3481      2.00000
    147     -17.3448      2.00000
    148     -17.3386      2.00000
    149     -17.3283      2.00000
    150     -17.3261      2.00000
    151     -17.3140      2.00000
    152     -17.3064      2.00000
    153     -17.3031      2.00000
    154     -17.2967      2.00000
    155     -17.2945      2.00000
    156     -17.2830      2.00000
    157     -17.2743      2.00000
    158     -17.2699      2.00000
    159     -17.2640      2.00000
    160     -17.2592      2.00000
    161     -17.2541      2.00000
    162     -17.2457      2.00000
    163     -17.2390      2.00000
    164     -17.2348      2.00000
    165     -17.2252      2.00000
    166     -17.2193      2.00000
    167     -17.2028      2.00000
    168     -17.1993      2.00000
    169     -17.1960      2.00000
    170     -17.1894      2.00000
    171     -17.1859      2.00000
    172     -17.1793      2.00000
    173     -17.1701      2.00000
    174     -17.1646      2.00000
    175     -17.1588      2.00000
    176     -17.1515      2.00000
    177     -17.1500      2.00000
    178     -17.1415      2.00000
    179     -17.1377      2.00000
    180     -17.1321      2.00000
    181     -17.1266      2.00000
    182     -17.1222      2.00000
    183     -17.1179      2.00000
    184     -17.1135      2.00000
    185     -17.1099      2.00000
    186     -17.1031      2.00000
    187     -17.0962      2.00000
    188     -17.0906      2.00000
    189     -17.0856      2.00000
    190     -17.0837      2.00000
    191     -17.0781      2.00000
    192     -17.0701      2.00000
    193     -17.0688      2.00000
    194     -17.0630      2.00000
    195     -17.0578      2.00000
    196     -17.0540      2.00000
    197     -17.0455      2.00000
    198     -17.0423      2.00000
    199     -17.0326      2.00000
    200     -17.0274      2.00000
    201     -17.0249      2.00000
    202     -17.0205      2.00000
    203     -17.0146      2.00000
    204     -17.0093      2.00000
    205     -17.0039      2.00000
    206     -17.0008      2.00000
    207     -16.9943      2.00000
    208     -16.9893      2.00000
    209     -16.9841      2.00000
    210     -16.9769      2.00000
    211     -16.9756      2.00000
    212     -16.9728      2.00000
    213     -16.9664      2.00000
    214     -16.9624      2.00000
    215     -16.9569      2.00000
    216     -16.9470      2.00000
    217     -16.9440      2.00000
    218     -16.9424      2.00000
    219     -16.9386      2.00000
    220     -16.9322      2.00000
    221     -16.9298      2.00000
    222     -16.9229      2.00000
    223     -16.9204      2.00000
    224     -16.9103      2.00000
    225     -16.9064      2.00000
    226     -16.9050      2.00000
    227     -16.8934      2.00000
    228     -16.8882      2.00000
    229     -16.8842      2.00000
    230     -16.8821      2.00000
    231     -16.8702      2.00000
    232     -16.8671      2.00000
    233     -16.8571      2.00000
    234     -16.8523      2.00000
    235     -16.8503      2.00000
    236     -16.8452      2.00000
    237     -16.8423      2.00000
    238     -16.8317      2.00000
    239     -16.8257      2.00000
    240     -16.8149      2.00000
    241     -16.8103      2.00000
    242     -16.8076      2.00000
    243     -16.8009      2.00000
    244     -16.7858      2.00000
    245     -16.7767      2.00000
    246     -16.7635      2.00000
    247     -16.7600      2.00000
    248     -16.7549      2.00000
    249     -16.7450      2.00000
    250     -16.7312      2.00000
    251     -16.7145      2.00000
    252     -16.7082      2.00000
    253     -16.6965      2.00000
    254     -16.6640      2.00000
    255     -16.6497      2.00000
    256     -16.6442      2.00000
    257       4.2387      2.00000
    258       4.2546      2.00000
    259       5.0329      2.00000
    260       5.0440      2.00000
    261       5.3129      2.00000
    262       5.3255      2.00000
    263       5.9230      2.00000
    264       5.9360      2.00000
    265       6.1722      2.00000
    266       6.2000      2.00000
    267       6.2166      2.00000
    268       6.2344      2.00000
    269       6.2500      2.00000
    270       6.2679      2.00000
    271       6.2918      2.00000
    272       6.3048      2.00000
    273       6.3340      2.00000
    274       6.3747      2.00000
    275       6.4462      2.00000
    276       6.4906      2.00000
    277       6.4973      2.00000
    278       6.5294      2.00000
    279       6.5370      2.00000
    280       6.5491      2.00000
    281       6.5864      2.00000
    282       6.6016      2.00000
    283       6.6285      2.00000
    284       6.6500      2.00000
    285       6.7002      2.00000
    286       6.7184      2.00000
    287       6.7575      2.00000
    288       6.7669      2.00000
    289       6.7890      2.00000
    290       6.8224      2.00000
    291       6.8385      2.00000
    292       6.8567      2.00000
    293       6.8755      2.00000
    294       6.8820      2.00000
    295       6.9034      2.00000
    296       6.9453      2.00000
    297       6.9496      2.00000
    298       6.9915      2.00000
    299       7.0033      2.00000
    300       7.0275      2.00000
    301       7.0479      2.00000
    302       7.0585      2.00000
    303       7.0794      2.00000
    304       7.1072      2.00000
    305       7.1334      2.00000
    306       7.1445      2.00000
    307       7.1872      2.00000
    308       7.2100      2.00000
    309       7.2483      2.00000
    310       7.2807      2.00000
    311       7.3124      2.00000
    312       7.3485      2.00000
    313       7.3781      2.00000
    314       7.4147      2.00000
    315       7.4857      2.00000
    316       7.4998      2.00000
    317       7.5160      2.00000
    318       7.5336      2.00000
    319       7.5707      2.00000
    320       7.5955      2.00000
    321       7.6436      2.00000
    322       7.6591      2.00000
    323       7.6726      2.00000
    324       7.6947      2.00000
    325       7.7071      2.00000
    326       7.7659      2.00000
    327       7.7827      2.00000
    328       7.7992      2.00000
    329       7.8177      2.00000
    330       7.8668      2.00000
    331       7.8884      2.00000
    332       7.9303      2.00000
    333       7.9489      2.00000
    334       7.9816      2.00000
    335       7.9990      2.00000
    336       8.0249      2.00000
    337       8.0575      2.00000
    338       8.0721      2.00000
    339       8.1162      2.00000
    340       8.1467      2.00000
    341       8.1778      2.00000
    342       8.2011      2.00000
    343       8.2268      2.00000
    344       8.2561      2.00000
    345       8.2869      2.00000
    346       8.3083      2.00000
    347       8.3357      2.00000
    348       8.3603      2.00000
    349       8.3756      2.00000
    350       8.4095      2.00000
    351       8.4541      2.00000
    352       8.4640      2.00000
    353       8.4830      2.00000
    354       8.4943      2.00000
    355       8.5211      2.00000
    356       8.5340      2.00000
    357       8.5617      2.00000
    358       8.5721      2.00000
    359       8.5997      2.00000
    360       8.6126      2.00000
    361       8.6360      2.00000
    362       8.6622      2.00000
    363       8.7052      2.00000
    364       8.7148      2.00000
    365       8.7417      2.00000
    366       8.7675      2.00000
    367       8.7815      2.00000
    368       8.8064      2.00000
    369       8.8133      2.00000
    370       8.8682      2.00000
    371       8.8922      2.00000
    372       8.9142      2.00000
    373       8.9254      2.00000
    374       8.9519      2.00000
    375       8.9884      2.00000
    376       9.0085      2.00000
    377       9.0225      2.00000
    378       9.0722      2.00000
    379       9.1319      1.99978
    380       9.1459      1.99905
    381       9.1683      1.99243
    382       9.1910      1.95734
    383       9.2235      1.73209
    384       9.2586      1.09211
    385       9.2830      0.56627
    386       9.2968      0.33529
    387       9.3130      0.15483
    388       9.3391      0.03065
    389       9.3627      0.00468
    390       9.3922      0.00025
    391       9.4007      0.00009
    392       9.4230      0.00001
    393       9.4423      0.00000
    394       9.4662      0.00000
    395       9.4956      0.00000
    396       9.5083      0.00000
    397       9.5218      0.00000
    398       9.5490      0.00000
    399       9.5696      0.00000
    400       9.5986      0.00000
    401       9.6093      0.00000
    402       9.6265      0.00000
    403       9.6506      0.00000
    404       9.6805      0.00000
    405       9.6839      0.00000
    406       9.7128      0.00000
    407       9.7235      0.00000
    408       9.7442      0.00000
    409       9.7828      0.00000
    410       9.8082      0.00000
    411       9.8279      0.00000
    412       9.8448      0.00000
    413       9.8693      0.00000
    414       9.8990      0.00000
    415       9.9271      0.00000
    416       9.9591      0.00000
    417       9.9756      0.00000
    418       9.9976      0.00000
    419      10.0111      0.00000
    420      10.0306      0.00000
    421      10.0583      0.00000
    422      10.0848      0.00000
    423      10.0952      0.00000
    424      10.1241      0.00000
    425      10.1379      0.00000
    426      10.1602      0.00000
    427      10.1775      0.00000
    428      10.1975      0.00000
    429      10.2077      0.00000
    430      10.2436      0.00000
    431      10.2541      0.00000
    432      10.2801      0.00000
    433      10.2909      0.00000
    434      10.3097      0.00000
    435      10.3339      0.00000
    436      10.3561      0.00000
    437      10.3756      0.00000
    438      10.3934      0.00000
    439      10.4137      0.00000
    440      10.4290      0.00000
    441      10.4584      0.00000
    442      10.4931      0.00000
    443      10.5061      0.00000
    444      10.5394      0.00000
    445      10.5467      0.00000
    446      10.5613      0.00000
    447      10.5865      0.00000
    448      10.6096      0.00000
    449      10.6234      0.00000
    450      10.6386      0.00000
    451      10.6585      0.00000
    452      10.6824      0.00000
    453      10.7057      0.00000
    454      10.7220      0.00000
    455      10.7583      0.00000
    456      10.7845      0.00000
    457      10.8159      0.00000
    458      10.8317      0.00000
    459      10.8444      0.00000
    460      10.8720      0.00000
    461      10.8918      0.00000
    462      10.9158      0.00000
    463      10.9753      0.00000
    464      11.0067      0.00000

 k-point    22 :       0.5000   -0.2500    0.2000
  band No.  band energies     occupation 
      1     -45.5192      2.00000
      2     -39.4666      2.00000
      3     -39.4253      2.00000
      4     -39.4112      2.00000
      5     -39.3991      2.00000
      6     -39.3966      2.00000
      7     -39.3854      2.00000
      8     -39.3753      2.00000
      9     -39.3639      2.00000
     10     -39.3587      2.00000
     11     -39.3435      2.00000
     12     -39.3353      2.00000
     13     -39.3337      2.00000
     14     -39.3299      2.00000
     15     -39.3191      2.00000
     16     -39.3079      2.00000
     17     -39.3026      2.00000
     18     -39.2963      2.00000
     19     -39.2936      2.00000
     20     -39.2888      2.00000
     21     -39.2785      2.00000
     22     -39.2750      2.00000
     23     -39.2655      2.00000
     24     -39.2602      2.00000
     25     -39.2480      2.00000
     26     -39.2417      2.00000
     27     -39.2388      2.00000
     28     -39.2373      2.00000
     29     -39.2329      2.00000
     30     -39.2312      2.00000
     31     -39.2259      2.00000
     32     -39.2157      2.00000
     33     -39.2131      2.00000
     34     -39.2046      2.00000
     35     -39.1970      2.00000
     36     -39.1893      2.00000
     37     -39.1803      2.00000
     38     -39.1722      2.00000
     39     -39.1645      2.00000
     40     -39.1544      2.00000
     41     -39.1521      2.00000
     42     -39.1482      2.00000
     43     -39.1459      2.00000
     44     -39.1345      2.00000
     45     -39.1287      2.00000
     46     -39.1231      2.00000
     47     -39.1144      2.00000
     48     -39.1074      2.00000
     49     -39.1049      2.00000
     50     -39.1016      2.00000
     51     -39.0985      2.00000
     52     -39.0937      2.00000
     53     -39.0830      2.00000
     54     -39.0704      2.00000
     55     -39.0638      2.00000
     56     -39.0609      2.00000
     57     -39.0308      2.00000
     58     -39.0253      2.00000
     59     -39.0213      2.00000
     60     -39.0198      2.00000
     61     -39.0150      2.00000
     62     -38.9513      2.00000
     63     -38.9137      2.00000
     64     -38.9131      2.00000
     65     -21.6081      2.00000
     66     -21.5850      2.00000
     67     -21.5569      2.00000
     68     -18.0337      2.00000
     69     -17.9883      2.00000
     70     -17.9768      2.00000
     71     -17.9696      2.00000
     72     -17.9614      2.00000
     73     -17.9490      2.00000
     74     -17.9410      2.00000
     75     -17.9204      2.00000
     76     -17.9132      2.00000
     77     -17.9089      2.00000
     78     -17.9004      2.00000
     79     -17.8882      2.00000
     80     -17.8846      2.00000
     81     -17.8757      2.00000
     82     -17.8606      2.00000
     83     -17.8584      2.00000
     84     -17.8493      2.00000
     85     -17.8389      2.00000
     86     -17.8293      2.00000
     87     -17.8198      2.00000
     88     -17.8121      2.00000
     89     -17.8099      2.00000
     90     -17.8038      2.00000
     91     -17.7932      2.00000
     92     -17.7845      2.00000
     93     -17.7771      2.00000
     94     -17.7701      2.00000
     95     -17.7683      2.00000
     96     -17.7558      2.00000
     97     -17.7533      2.00000
     98     -17.7410      2.00000
     99     -17.7349      2.00000
    100     -17.7258      2.00000
    101     -17.7222      2.00000
    102     -17.7107      2.00000
    103     -17.7041      2.00000
    104     -17.6937      2.00000
    105     -17.6856      2.00000
    106     -17.6784      2.00000
    107     -17.6751      2.00000
    108     -17.6648      2.00000
    109     -17.6559      2.00000
    110     -17.6493      2.00000
    111     -17.6398      2.00000
    112     -17.6360      2.00000
    113     -17.6230      2.00000
    114     -17.6182      2.00000
    115     -17.6114      2.00000
    116     -17.6013      2.00000
    117     -17.5986      2.00000
    118     -17.5924      2.00000
    119     -17.5836      2.00000
    120     -17.5791      2.00000
    121     -17.5725      2.00000
    122     -17.5686      2.00000
    123     -17.5531      2.00000
    124     -17.5464      2.00000
    125     -17.5351      2.00000
    126     -17.5249      2.00000
    127     -17.5184      2.00000
    128     -17.5119      2.00000
    129     -17.5035      2.00000
    130     -17.4901      2.00000
    131     -17.4812      2.00000
    132     -17.4788      2.00000
    133     -17.4703      2.00000
    134     -17.4596      2.00000
    135     -17.4528      2.00000
    136     -17.4438      2.00000
    137     -17.4317      2.00000
    138     -17.4206      2.00000
    139     -17.4121      2.00000
    140     -17.4015      2.00000
    141     -17.3945      2.00000
    142     -17.3812      2.00000
    143     -17.3760      2.00000
    144     -17.3658      2.00000
    145     -17.3588      2.00000
    146     -17.3482      2.00000
    147     -17.3465      2.00000
    148     -17.3339      2.00000
    149     -17.3320      2.00000
    150     -17.3206      2.00000
    151     -17.3200      2.00000
    152     -17.3093      2.00000
    153     -17.3073      2.00000
    154     -17.2974      2.00000
    155     -17.2876      2.00000
    156     -17.2838      2.00000
    157     -17.2803      2.00000
    158     -17.2668      2.00000
    159     -17.2609      2.00000
    160     -17.2533      2.00000
    161     -17.2490      2.00000
    162     -17.2396      2.00000
    163     -17.2388      2.00000
    164     -17.2356      2.00000
    165     -17.2284      2.00000
    166     -17.2177      2.00000
    167     -17.2125      2.00000
    168     -17.2061      2.00000
    169     -17.1955      2.00000
    170     -17.1891      2.00000
    171     -17.1848      2.00000
    172     -17.1783      2.00000
    173     -17.1694      2.00000
    174     -17.1668      2.00000
    175     -17.1635      2.00000
    176     -17.1530      2.00000
    177     -17.1505      2.00000
    178     -17.1431      2.00000
    179     -17.1371      2.00000
    180     -17.1351      2.00000
    181     -17.1298      2.00000
    182     -17.1228      2.00000
    183     -17.1129      2.00000
    184     -17.1101      2.00000
    185     -17.1066      2.00000
    186     -17.0992      2.00000
    187     -17.0959      2.00000
    188     -17.0946      2.00000
    189     -17.0885      2.00000
    190     -17.0825      2.00000
    191     -17.0793      2.00000
    192     -17.0741      2.00000
    193     -17.0703      2.00000
    194     -17.0637      2.00000
    195     -17.0530      2.00000
    196     -17.0522      2.00000
    197     -17.0469      2.00000
    198     -17.0379      2.00000
    199     -17.0334      2.00000
    200     -17.0291      2.00000
    201     -17.0242      2.00000
    202     -17.0199      2.00000
    203     -17.0141      2.00000
    204     -17.0064      2.00000
    205     -17.0045      2.00000
    206     -17.0003      2.00000
    207     -16.9955      2.00000
    208     -16.9899      2.00000
    209     -16.9841      2.00000
    210     -16.9816      2.00000
    211     -16.9746      2.00000
    212     -16.9718      2.00000
    213     -16.9678      2.00000
    214     -16.9630      2.00000
    215     -16.9541      2.00000
    216     -16.9485      2.00000
    217     -16.9448      2.00000
    218     -16.9392      2.00000
    219     -16.9357      2.00000
    220     -16.9320      2.00000
    221     -16.9249      2.00000
    222     -16.9222      2.00000
    223     -16.9199      2.00000
    224     -16.9114      2.00000
    225     -16.9096      2.00000
    226     -16.9036      2.00000
    227     -16.8957      2.00000
    228     -16.8921      2.00000
    229     -16.8834      2.00000
    230     -16.8807      2.00000
    231     -16.8718      2.00000
    232     -16.8670      2.00000
    233     -16.8607      2.00000
    234     -16.8548      2.00000
    235     -16.8502      2.00000
    236     -16.8426      2.00000
    237     -16.8382      2.00000
    238     -16.8295      2.00000
    239     -16.8215      2.00000
    240     -16.8173      2.00000
    241     -16.8126      2.00000
    242     -16.8054      2.00000
    243     -16.7996      2.00000
    244     -16.7852      2.00000
    245     -16.7797      2.00000
    246     -16.7689      2.00000
    247     -16.7609      2.00000
    248     -16.7545      2.00000
    249     -16.7476      2.00000
    250     -16.7297      2.00000
    251     -16.7114      2.00000
    252     -16.7054      2.00000
    253     -16.6976      2.00000
    254     -16.6621      2.00000
    255     -16.6516      2.00000
    256     -16.6450      2.00000
    257       4.2390      2.00000
    258       4.2552      2.00000
    259       5.0322      2.00000
    260       5.0429      2.00000
    261       5.3146      2.00000
    262       5.3255      2.00000
    263       5.9210      2.00000
    264       5.9394      2.00000
    265       6.1724      2.00000
    266       6.1965      2.00000
    267       6.2173      2.00000
    268       6.2271      2.00000
    269       6.2572      2.00000
    270       6.2608      2.00000
    271       6.2859      2.00000
    272       6.3040      2.00000
    273       6.3479      2.00000
    274       6.3623      2.00000
    275       6.4592      2.00000
    276       6.4749      2.00000
    277       6.5081      2.00000
    278       6.5230      2.00000
    279       6.5502      2.00000
    280       6.5584      2.00000
    281       6.5893      2.00000
    282       6.6022      2.00000
    283       6.6216      2.00000
    284       6.6529      2.00000
    285       6.6902      2.00000
    286       6.7273      2.00000
    287       6.7525      2.00000
    288       6.7696      2.00000
    289       6.7899      2.00000
    290       6.8072      2.00000
    291       6.8294      2.00000
    292       6.8535      2.00000
    293       6.8723      2.00000
    294       6.8905      2.00000
    295       6.9118      2.00000
    296       6.9207      2.00000
    297       6.9474      2.00000
    298       6.9916      2.00000
    299       7.0008      2.00000
    300       7.0178      2.00000
    301       7.0475      2.00000
    302       7.0753      2.00000
    303       7.0918      2.00000
    304       7.1032      2.00000
    305       7.1462      2.00000
    306       7.1786      2.00000
    307       7.2126      2.00000
    308       7.2268      2.00000
    309       7.2441      2.00000
    310       7.2775      2.00000
    311       7.3159      2.00000
    312       7.3280      2.00000
    313       7.3736      2.00000
    314       7.4026      2.00000
    315       7.4603      2.00000
    316       7.4779      2.00000
    317       7.5010      2.00000
    318       7.5229      2.00000
    319       7.5823      2.00000
    320       7.6163      2.00000
    321       7.6312      2.00000
    322       7.6497      2.00000
    323       7.6577      2.00000
    324       7.6978      2.00000
    325       7.7152      2.00000
    326       7.7363      2.00000
    327       7.8016      2.00000
    328       7.8079      2.00000
    329       7.8426      2.00000
    330       7.8664      2.00000
    331       7.8816      2.00000
    332       7.9160      2.00000
    333       7.9420      2.00000
    334       7.9976      2.00000
    335       8.0047      2.00000
    336       8.0254      2.00000
    337       8.0859      2.00000
    338       8.1104      2.00000
    339       8.1195      2.00000
    340       8.1428      2.00000
    341       8.1674      2.00000
    342       8.1925      2.00000
    343       8.2239      2.00000
    344       8.2506      2.00000
    345       8.2906      2.00000
    346       8.3039      2.00000
    347       8.3183      2.00000
    348       8.3573      2.00000
    349       8.3928      2.00000
    350       8.4016      2.00000
    351       8.4365      2.00000
    352       8.4584      2.00000
    353       8.4746      2.00000
    354       8.4984      2.00000
    355       8.5136      2.00000
    356       8.5384      2.00000
    357       8.5654      2.00000
    358       8.5785      2.00000
    359       8.5929      2.00000
    360       8.6049      2.00000
    361       8.6568      2.00000
    362       8.6587      2.00000
    363       8.6815      2.00000
    364       8.7220      2.00000
    365       8.7434      2.00000
    366       8.7748      2.00000
    367       8.7941      2.00000
    368       8.8063      2.00000
    369       8.8347      2.00000
    370       8.8498      2.00000
    371       8.8666      2.00000
    372       8.8830      2.00000
    373       8.9120      2.00000
    374       8.9525      2.00000
    375       8.9819      2.00000
    376       9.0135      2.00000
    377       9.0405      2.00000
    378       9.0525      2.00000
    379       9.1242      1.99991
    380       9.1710      1.99049
    381       9.1855      1.97104
    382       9.2188      1.78549
    383       9.2286      1.66450
    384       9.2612      1.03402
    385       9.2975      0.32507
    386       9.3096      0.18467
    387       9.3289      0.06121
    388       9.3467      0.01754
    389       9.3631      0.00450
    390       9.3854      0.00052
    391       9.4075      0.00004
    392       9.4294      0.00000
    393       9.4604      0.00000
    394       9.4741      0.00000
    395       9.5003      0.00000
    396       9.5080      0.00000
    397       9.5376      0.00000
    398       9.5457      0.00000
    399       9.5656      0.00000
    400       9.5913      0.00000
    401       9.5988      0.00000
    402       9.6322      0.00000
    403       9.6623      0.00000
    404       9.6768      0.00000
    405       9.6883      0.00000
    406       9.7241      0.00000
    407       9.7451      0.00000
    408       9.7690      0.00000
    409       9.8045      0.00000
    410       9.8208      0.00000
    411       9.8405      0.00000
    412       9.8471      0.00000
    413       9.8611      0.00000
    414       9.8928      0.00000
    415       9.9064      0.00000
    416       9.9394      0.00000
    417       9.9585      0.00000
    418       9.9775      0.00000
    419      10.0158      0.00000
    420      10.0320      0.00000
    421      10.0454      0.00000
    422      10.0588      0.00000
    423      10.0777      0.00000
    424      10.1027      0.00000
    425      10.1427      0.00000
    426      10.1530      0.00000
    427      10.1730      0.00000
    428      10.1886      0.00000
    429      10.2200      0.00000
    430      10.2499      0.00000
    431      10.2588      0.00000
    432      10.2712      0.00000
    433      10.2818      0.00000
    434      10.3161      0.00000
    435      10.3423      0.00000
    436      10.3449      0.00000
    437      10.3790      0.00000
    438      10.3905      0.00000
    439      10.4229      0.00000
    440      10.4403      0.00000
    441      10.4554      0.00000
    442      10.4710      0.00000
    443      10.4879      0.00000
    444      10.5131      0.00000
    445      10.5233      0.00000
    446      10.5483      0.00000
    447      10.5720      0.00000
    448      10.5996      0.00000
    449      10.6081      0.00000
    450      10.6441      0.00000
    451      10.6551      0.00000
    452      10.6881      0.00000
    453      10.6969      0.00000
    454      10.7341      0.00000
    455      10.7684      0.00000
    456      10.7899      0.00000
    457      10.8079      0.00000
    458      10.8205      0.00000
    459      10.8381      0.00000
    460      10.8697      0.00000
    461      10.8989      0.00000
    462      10.9267      0.00000
    463      10.9530      0.00000
    464      11.0146      0.00000

 k-point    23 :      -0.0000    0.5000    0.2000
  band No.  band energies     occupation 
      1     -45.5192      2.00000
      2     -39.4664      2.00000
      3     -39.4263      2.00000
      4     -39.4080      2.00000
      5     -39.4012      2.00000
      6     -39.3962      2.00000
      7     -39.3864      2.00000
      8     -39.3747      2.00000
      9     -39.3634      2.00000
     10     -39.3585      2.00000
     11     -39.3434      2.00000
     12     -39.3371      2.00000
     13     -39.3335      2.00000
     14     -39.3279      2.00000
     15     -39.3232      2.00000
     16     -39.3087      2.00000
     17     -39.3024      2.00000
     18     -39.2944      2.00000
     19     -39.2930      2.00000
     20     -39.2893      2.00000
     21     -39.2796      2.00000
     22     -39.2721      2.00000
     23     -39.2668      2.00000
     24     -39.2606      2.00000
     25     -39.2458      2.00000
     26     -39.2440      2.00000
     27     -39.2396      2.00000
     28     -39.2363      2.00000
     29     -39.2349      2.00000
     30     -39.2307      2.00000
     31     -39.2250      2.00000
     32     -39.2164      2.00000
     33     -39.2119      2.00000
     34     -39.2033      2.00000
     35     -39.1955      2.00000
     36     -39.1892      2.00000
     37     -39.1795      2.00000
     38     -39.1734      2.00000
     39     -39.1658      2.00000
     40     -39.1551      2.00000
     41     -39.1504      2.00000
     42     -39.1481      2.00000
     43     -39.1460      2.00000
     44     -39.1348      2.00000
     45     -39.1296      2.00000
     46     -39.1226      2.00000
     47     -39.1140      2.00000
     48     -39.1097      2.00000
     49     -39.1047      2.00000
     50     -39.1006      2.00000
     51     -39.0963      2.00000
     52     -39.0953      2.00000
     53     -39.0827      2.00000
     54     -39.0707      2.00000
     55     -39.0640      2.00000
     56     -39.0610      2.00000
     57     -39.0305      2.00000
     58     -39.0253      2.00000
     59     -39.0216      2.00000
     60     -39.0195      2.00000
     61     -39.0151      2.00000
     62     -38.9512      2.00000
     63     -38.9137      2.00000
     64     -38.9132      2.00000
     65     -21.6081      2.00000
     66     -21.5850      2.00000
     67     -21.5569      2.00000
     68     -18.0346      2.00000
     69     -17.9817      2.00000
     70     -17.9730      2.00000
     71     -17.9651      2.00000
     72     -17.9575      2.00000
     73     -17.9522      2.00000
     74     -17.9372      2.00000
     75     -17.9238      2.00000
     76     -17.9115      2.00000
     77     -17.9098      2.00000
     78     -17.9005      2.00000
     79     -17.8944      2.00000
     80     -17.8830      2.00000
     81     -17.8736      2.00000
     82     -17.8633      2.00000
     83     -17.8541      2.00000
     84     -17.8445      2.00000
     85     -17.8430      2.00000
     86     -17.8297      2.00000
     87     -17.8256      2.00000
     88     -17.8175      2.00000
     89     -17.8110      2.00000
     90     -17.8046      2.00000
     91     -17.7966      2.00000
     92     -17.7902      2.00000
     93     -17.7820      2.00000
     94     -17.7745      2.00000
     95     -17.7669      2.00000
     96     -17.7569      2.00000
     97     -17.7500      2.00000
     98     -17.7449      2.00000
     99     -17.7416      2.00000
    100     -17.7266      2.00000
    101     -17.7235      2.00000
    102     -17.7152      2.00000
    103     -17.7044      2.00000
    104     -17.6949      2.00000
    105     -17.6920      2.00000
    106     -17.6863      2.00000
    107     -17.6811      2.00000
    108     -17.6758      2.00000
    109     -17.6639      2.00000
    110     -17.6604      2.00000
    111     -17.6507      2.00000
    112     -17.6404      2.00000
    113     -17.6280      2.00000
    114     -17.6224      2.00000
    115     -17.6170      2.00000
    116     -17.6117      2.00000
    117     -17.5960      2.00000
    118     -17.5859      2.00000
    119     -17.5804      2.00000
    120     -17.5699      2.00000
    121     -17.5591      2.00000
    122     -17.5495      2.00000
    123     -17.5378      2.00000
    124     -17.5295      2.00000
    125     -17.5242      2.00000
    126     -17.5111      2.00000
    127     -17.5023      2.00000
    128     -17.4968      2.00000
    129     -17.4885      2.00000
    130     -17.4763      2.00000
    131     -17.4698      2.00000
    132     -17.4608      2.00000
    133     -17.4545      2.00000
    134     -17.4435      2.00000
    135     -17.4398      2.00000
    136     -17.4294      2.00000
    137     -17.4250      2.00000
    138     -17.4159      2.00000
    139     -17.4058      2.00000
    140     -17.4007      2.00000
    141     -17.3998      2.00000
    142     -17.3871      2.00000
    143     -17.3774      2.00000
    144     -17.3763      2.00000
    145     -17.3689      2.00000
    146     -17.3638      2.00000
    147     -17.3497      2.00000
    148     -17.3478      2.00000
    149     -17.3375      2.00000
    150     -17.3341      2.00000
    151     -17.3208      2.00000
    152     -17.3151      2.00000
    153     -17.3133      2.00000
    154     -17.3070      2.00000
    155     -17.2950      2.00000
    156     -17.2900      2.00000
    157     -17.2872      2.00000
    158     -17.2790      2.00000
    159     -17.2698      2.00000
    160     -17.2621      2.00000
    161     -17.2525      2.00000
    162     -17.2441      2.00000
    163     -17.2402      2.00000
    164     -17.2342      2.00000
    165     -17.2299      2.00000
    166     -17.2200      2.00000
    167     -17.2152      2.00000
    168     -17.2069      2.00000
    169     -17.1981      2.00000
    170     -17.1900      2.00000
    171     -17.1858      2.00000
    172     -17.1786      2.00000
    173     -17.1723      2.00000
    174     -17.1659      2.00000
    175     -17.1624      2.00000
    176     -17.1587      2.00000
    177     -17.1520      2.00000
    178     -17.1428      2.00000
    179     -17.1388      2.00000
    180     -17.1325      2.00000
    181     -17.1268      2.00000
    182     -17.1160      2.00000
    183     -17.1146      2.00000
    184     -17.1092      2.00000
    185     -17.1044      2.00000
    186     -17.0997      2.00000
    187     -17.0957      2.00000
    188     -17.0889      2.00000
    189     -17.0868      2.00000
    190     -17.0816      2.00000
    191     -17.0752      2.00000
    192     -17.0700      2.00000
    193     -17.0688      2.00000
    194     -17.0599      2.00000
    195     -17.0576      2.00000
    196     -17.0565      2.00000
    197     -17.0465      2.00000
    198     -17.0412      2.00000
    199     -17.0356      2.00000
    200     -17.0303      2.00000
    201     -17.0281      2.00000
    202     -17.0219      2.00000
    203     -17.0173      2.00000
    204     -17.0112      2.00000
    205     -17.0072      2.00000
    206     -17.0006      2.00000
    207     -16.9964      2.00000
    208     -16.9933      2.00000
    209     -16.9842      2.00000
    210     -16.9823      2.00000
    211     -16.9706      2.00000
    212     -16.9689      2.00000
    213     -16.9665      2.00000
    214     -16.9628      2.00000
    215     -16.9585      2.00000
    216     -16.9520      2.00000
    217     -16.9441      2.00000
    218     -16.9428      2.00000
    219     -16.9334      2.00000
    220     -16.9317      2.00000
    221     -16.9255      2.00000
    222     -16.9224      2.00000
    223     -16.9198      2.00000
    224     -16.9101      2.00000
    225     -16.9073      2.00000
    226     -16.9000      2.00000
    227     -16.8931      2.00000
    228     -16.8902      2.00000
    229     -16.8847      2.00000
    230     -16.8774      2.00000
    231     -16.8743      2.00000
    232     -16.8629      2.00000
    233     -16.8584      2.00000
    234     -16.8568      2.00000
    235     -16.8491      2.00000
    236     -16.8384      2.00000
    237     -16.8340      2.00000
    238     -16.8288      2.00000
    239     -16.8231      2.00000
    240     -16.8167      2.00000
    241     -16.8130      2.00000
    242     -16.8085      2.00000
    243     -16.7992      2.00000
    244     -16.7809      2.00000
    245     -16.7762      2.00000
    246     -16.7671      2.00000
    247     -16.7609      2.00000
    248     -16.7573      2.00000
    249     -16.7430      2.00000
    250     -16.7288      2.00000
    251     -16.7099      2.00000
    252     -16.7061      2.00000
    253     -16.6959      2.00000
    254     -16.6711      2.00000
    255     -16.6507      2.00000
    256     -16.6399      2.00000
    257       4.2333      2.00000
    258       4.2630      2.00000
    259       5.2987      2.00000
    260       5.3127      2.00000
    261       5.3288      2.00000
    262       5.3427      2.00000
    263       5.3607      2.00000
    264       5.3720      2.00000
    265       6.0546      2.00000
    266       6.0829      2.00000
    267       6.0928      2.00000
    268       6.1042      2.00000
    269       6.2532      2.00000
    270       6.2813      2.00000
    271       6.2988      2.00000
    272       6.3125      2.00000
    273       6.3474      2.00000
    274       6.3557      2.00000
    275       6.4885      2.00000
    276       6.5518      2.00000
    277       6.5667      2.00000
    278       6.5738      2.00000
    279       6.6098      2.00000
    280       6.6304      2.00000
    281       6.6526      2.00000
    282       6.6753      2.00000
    283       6.7184      2.00000
    284       6.7322      2.00000
    285       6.7769      2.00000
    286       6.7935      2.00000
    287       6.8068      2.00000
    288       6.8380      2.00000
    289       6.8731      2.00000
    290       6.8808      2.00000
    291       6.9101      2.00000
    292       6.9254      2.00000
    293       6.9404      2.00000
    294       6.9829      2.00000
    295       6.9933      2.00000
    296       7.0269      2.00000
    297       7.0445      2.00000
    298       7.0579      2.00000
    299       7.0642      2.00000
    300       7.0779      2.00000
    301       7.1098      2.00000
    302       7.1218      2.00000
    303       7.1371      2.00000
    304       7.1598      2.00000
    305       7.1812      2.00000
    306       7.1945      2.00000
    307       7.2047      2.00000
    308       7.2196      2.00000
    309       7.2359      2.00000
    310       7.2423      2.00000
    311       7.2683      2.00000
    312       7.2987      2.00000
    313       7.3091      2.00000
    314       7.3219      2.00000
    315       7.3406      2.00000
    316       7.3610      2.00000
    317       7.3855      2.00000
    318       7.4014      2.00000
    319       7.4176      2.00000
    320       7.4596      2.00000
    321       7.4935      2.00000
    322       7.5150      2.00000
    323       7.5923      2.00000
    324       7.6426      2.00000
    325       7.6625      2.00000
    326       7.7160      2.00000
    327       7.7946      2.00000
    328       7.8705      2.00000
    329       7.9029      2.00000
    330       7.9308      2.00000
    331       7.9435      2.00000
    332       7.9779      2.00000
    333       8.0022      2.00000
    334       8.0076      2.00000
    335       8.0360      2.00000
    336       8.0594      2.00000
    337       8.1006      2.00000
    338       8.1091      2.00000
    339       8.1328      2.00000
    340       8.1550      2.00000
    341       8.1756      2.00000
    342       8.1913      2.00000
    343       8.2204      2.00000
    344       8.2592      2.00000
    345       8.2846      2.00000
    346       8.3031      2.00000
    347       8.3155      2.00000
    348       8.3433      2.00000
    349       8.3746      2.00000
    350       8.3983      2.00000
    351       8.4271      2.00000
    352       8.4374      2.00000
    353       8.5003      2.00000
    354       8.5062      2.00000
    355       8.5295      2.00000
    356       8.5472      2.00000
    357       8.5542      2.00000
    358       8.5842      2.00000
    359       8.6086      2.00000
    360       8.6332      2.00000
    361       8.6680      2.00000
    362       8.6809      2.00000
    363       8.7208      2.00000
    364       8.7407      2.00000
    365       8.7703      2.00000
    366       8.7980      2.00000
    367       8.8132      2.00000
    368       8.8398      2.00000
    369       8.8693      2.00000
    370       8.8818      2.00000
    371       8.9114      2.00000
    372       8.9353      2.00000
    373       8.9523      2.00000
    374       8.9726      2.00000
    375       8.9998      2.00000
    376       9.0202      2.00000
    377       9.0317      2.00000
    378       9.0588      2.00000
    379       9.0875      2.00000
    380       9.1093      1.99999
    381       9.1478      1.99884
    382       9.1710      1.99053
    383       9.2079      1.87899
    384       9.2310      1.63034
    385       9.2431      1.42032
    386       9.2959      0.34742
    387       9.3429      0.02336
    388       9.3553      0.00881
    389       9.3714      0.00211
    390       9.3790      0.00101
    391       9.4051      0.00006
    392       9.4290      0.00000
    393       9.4525      0.00000
    394       9.4745      0.00000
    395       9.4902      0.00000
    396       9.5116      0.00000
    397       9.5294      0.00000
    398       9.5505      0.00000
    399       9.5763      0.00000
    400       9.6048      0.00000
    401       9.6295      0.00000
    402       9.6393      0.00000
    403       9.6878      0.00000
    404       9.6999      0.00000
    405       9.7251      0.00000
    406       9.7292      0.00000
    407       9.7491      0.00000
    408       9.7737      0.00000
    409       9.7878      0.00000
    410       9.8081      0.00000
    411       9.8268      0.00000
    412       9.8513      0.00000
    413       9.8800      0.00000
    414       9.8843      0.00000
    415       9.9192      0.00000
    416       9.9564      0.00000
    417       9.9653      0.00000
    418       9.9897      0.00000
    419      10.0125      0.00000
    420      10.0420      0.00000
    421      10.0633      0.00000
    422      10.0785      0.00000
    423      10.1153      0.00000
    424      10.1337      0.00000
    425      10.1478      0.00000
    426      10.1709      0.00000
    427      10.1880      0.00000
    428      10.1983      0.00000
    429      10.2275      0.00000
    430      10.2398      0.00000
    431      10.2660      0.00000
    432      10.2742      0.00000
    433      10.2967      0.00000
    434      10.3146      0.00000
    435      10.3428      0.00000
    436      10.3543      0.00000
    437      10.3867      0.00000
    438      10.3968      0.00000
    439      10.4251      0.00000
    440      10.4351      0.00000
    441      10.4500      0.00000
    442      10.4843      0.00000
    443      10.4961      0.00000
    444      10.5232      0.00000
    445      10.5413      0.00000
    446      10.5654      0.00000
    447      10.5883      0.00000
    448      10.6069      0.00000
    449      10.6168      0.00000
    450      10.6446      0.00000
    451      10.6735      0.00000
    452      10.6866      0.00000
    453      10.7015      0.00000
    454      10.7211      0.00000
    455      10.7381      0.00000
    456      10.7755      0.00000
    457      10.7945      0.00000
    458      10.8235      0.00000
    459      10.8339      0.00000
    460      10.8594      0.00000
    461      10.8865      0.00000
    462      10.9089      0.00000
    463      10.9335      0.00000
    464      10.9815      0.00000

 k-point    24 :       0.2500    0.5000    0.2000
  band No.  band energies     occupation 
      1     -45.5192      2.00000
      2     -39.4662      2.00000
      3     -39.4256      2.00000
      4     -39.4088      2.00000
      5     -39.4015      2.00000
      6     -39.3961      2.00000
      7     -39.3863      2.00000
      8     -39.3748      2.00000
      9     -39.3644      2.00000
     10     -39.3584      2.00000
     11     -39.3427      2.00000
     12     -39.3362      2.00000
     13     -39.3343      2.00000
     14     -39.3292      2.00000
     15     -39.3220      2.00000
     16     -39.3081      2.00000
     17     -39.3024      2.00000
     18     -39.2945      2.00000
     19     -39.2932      2.00000
     20     -39.2896      2.00000
     21     -39.2789      2.00000
     22     -39.2729      2.00000
     23     -39.2668      2.00000
     24     -39.2604      2.00000
     25     -39.2452      2.00000
     26     -39.2430      2.00000
     27     -39.2392      2.00000
     28     -39.2369      2.00000
     29     -39.2336      2.00000
     30     -39.2324      2.00000
     31     -39.2246      2.00000
     32     -39.2172      2.00000
     33     -39.2120      2.00000
     34     -39.2036      2.00000
     35     -39.1960      2.00000
     36     -39.1881      2.00000
     37     -39.1811      2.00000
     38     -39.1721      2.00000
     39     -39.1654      2.00000
     40     -39.1554      2.00000
     41     -39.1512      2.00000
     42     -39.1479      2.00000
     43     -39.1459      2.00000
     44     -39.1355      2.00000
     45     -39.1288      2.00000
     46     -39.1229      2.00000
     47     -39.1140      2.00000
     48     -39.1091      2.00000
     49     -39.1046      2.00000
     50     -39.1012      2.00000
     51     -39.0971      2.00000
     52     -39.0944      2.00000
     53     -39.0829      2.00000
     54     -39.0706      2.00000
     55     -39.0640      2.00000
     56     -39.0609      2.00000
     57     -39.0306      2.00000
     58     -39.0253      2.00000
     59     -39.0215      2.00000
     60     -39.0196      2.00000
     61     -39.0151      2.00000
     62     -38.9512      2.00000
     63     -38.9137      2.00000
     64     -38.9131      2.00000
     65     -21.6081      2.00000
     66     -21.5850      2.00000
     67     -21.5569      2.00000
     68     -18.0329      2.00000
     69     -17.9804      2.00000
     70     -17.9695      2.00000
     71     -17.9635      2.00000
     72     -17.9534      2.00000
     73     -17.9495      2.00000
     74     -17.9360      2.00000
     75     -17.9192      2.00000
     76     -17.9165      2.00000
     77     -17.9060      2.00000
     78     -17.9004      2.00000
     79     -17.8948      2.00000
     80     -17.8848      2.00000
     81     -17.8722      2.00000
     82     -17.8626      2.00000
     83     -17.8574      2.00000
     84     -17.8463      2.00000
     85     -17.8374      2.00000
     86     -17.8282      2.00000
     87     -17.8247      2.00000
     88     -17.8164      2.00000
     89     -17.8117      2.00000
     90     -17.7989      2.00000
     91     -17.7921      2.00000
     92     -17.7897      2.00000
     93     -17.7825      2.00000
     94     -17.7729      2.00000
     95     -17.7669      2.00000
     96     -17.7553      2.00000
     97     -17.7508      2.00000
     98     -17.7498      2.00000
     99     -17.7375      2.00000
    100     -17.7325      2.00000
    101     -17.7298      2.00000
    102     -17.7180      2.00000
    103     -17.7073      2.00000
    104     -17.7013      2.00000
    105     -17.6995      2.00000
    106     -17.6901      2.00000
    107     -17.6835      2.00000
    108     -17.6688      2.00000
    109     -17.6603      2.00000
    110     -17.6541      2.00000
    111     -17.6461      2.00000
    112     -17.6349      2.00000
    113     -17.6274      2.00000
    114     -17.6244      2.00000
    115     -17.6185      2.00000
    116     -17.6119      2.00000
    117     -17.6011      2.00000
    118     -17.5935      2.00000
    119     -17.5810      2.00000
    120     -17.5753      2.00000
    121     -17.5674      2.00000
    122     -17.5564      2.00000
    123     -17.5533      2.00000
    124     -17.5437      2.00000
    125     -17.5345      2.00000
    126     -17.5176      2.00000
    127     -17.5099      2.00000
    128     -17.4961      2.00000
    129     -17.4899      2.00000
    130     -17.4808      2.00000
    131     -17.4734      2.00000
    132     -17.4639      2.00000
    133     -17.4563      2.00000
    134     -17.4493      2.00000
    135     -17.4417      2.00000
    136     -17.4314      2.00000
    137     -17.4258      2.00000
    138     -17.4190      2.00000
    139     -17.4118      2.00000
    140     -17.4011      2.00000
    141     -17.3907      2.00000
    142     -17.3837      2.00000
    143     -17.3789      2.00000
    144     -17.3720      2.00000
    145     -17.3602      2.00000
    146     -17.3561      2.00000
    147     -17.3486      2.00000
    148     -17.3408      2.00000
    149     -17.3295      2.00000
    150     -17.3229      2.00000
    151     -17.3173      2.00000
    152     -17.3111      2.00000
    153     -17.3062      2.00000
    154     -17.3002      2.00000
    155     -17.2948      2.00000
    156     -17.2852      2.00000
    157     -17.2815      2.00000
    158     -17.2702      2.00000
    159     -17.2668      2.00000
    160     -17.2579      2.00000
    161     -17.2501      2.00000
    162     -17.2434      2.00000
    163     -17.2373      2.00000
    164     -17.2321      2.00000
    165     -17.2213      2.00000
    166     -17.2178      2.00000
    167     -17.2101      2.00000
    168     -17.2058      2.00000
    169     -17.2021      2.00000
    170     -17.1948      2.00000
    171     -17.1816      2.00000
    172     -17.1782      2.00000
    173     -17.1735      2.00000
    174     -17.1656      2.00000
    175     -17.1605      2.00000
    176     -17.1555      2.00000
    177     -17.1497      2.00000
    178     -17.1429      2.00000
    179     -17.1379      2.00000
    180     -17.1304      2.00000
    181     -17.1272      2.00000
    182     -17.1218      2.00000
    183     -17.1177      2.00000
    184     -17.1106      2.00000
    185     -17.1058      2.00000
    186     -17.1006      2.00000
    187     -17.0956      2.00000
    188     -17.0896      2.00000
    189     -17.0856      2.00000
    190     -17.0833      2.00000
    191     -17.0758      2.00000
    192     -17.0714      2.00000
    193     -17.0684      2.00000
    194     -17.0620      2.00000
    195     -17.0538      2.00000
    196     -17.0510      2.00000
    197     -17.0476      2.00000
    198     -17.0394      2.00000
    199     -17.0364      2.00000
    200     -17.0320      2.00000
    201     -17.0266      2.00000
    202     -17.0182      2.00000
    203     -17.0171      2.00000
    204     -17.0133      2.00000
    205     -17.0032      2.00000
    206     -16.9978      2.00000
    207     -16.9969      2.00000
    208     -16.9933      2.00000
    209     -16.9878      2.00000
    210     -16.9814      2.00000
    211     -16.9736      2.00000
    212     -16.9721      2.00000
    213     -16.9684      2.00000
    214     -16.9627      2.00000
    215     -16.9563      2.00000
    216     -16.9553      2.00000
    217     -16.9477      2.00000
    218     -16.9439      2.00000
    219     -16.9342      2.00000
    220     -16.9299      2.00000
    221     -16.9277      2.00000
    222     -16.9198      2.00000
    223     -16.9195      2.00000
    224     -16.9137      2.00000
    225     -16.9062      2.00000
    226     -16.9018      2.00000
    227     -16.8938      2.00000
    228     -16.8886      2.00000
    229     -16.8847      2.00000
    230     -16.8800      2.00000
    231     -16.8725      2.00000
    232     -16.8634      2.00000
    233     -16.8595      2.00000
    234     -16.8558      2.00000
    235     -16.8497      2.00000
    236     -16.8396      2.00000
    237     -16.8373      2.00000
    238     -16.8298      2.00000
    239     -16.8247      2.00000
    240     -16.8183      2.00000
    241     -16.8116      2.00000
    242     -16.8083      2.00000
    243     -16.8001      2.00000
    244     -16.7822      2.00000
    245     -16.7752      2.00000
    246     -16.7703      2.00000
    247     -16.7602      2.00000
    248     -16.7559      2.00000
    249     -16.7472      2.00000
    250     -16.7290      2.00000
    251     -16.7107      2.00000
    252     -16.7050      2.00000
    253     -16.6960      2.00000
    254     -16.6693      2.00000
    255     -16.6509      2.00000
    256     -16.6424      2.00000
    257       4.3128      2.00000
    258       4.3422      2.00000
    259       4.8978      2.00000
    260       4.9235      2.00000
    261       5.3758      2.00000
    262       5.3969      2.00000
    263       5.7896      2.00000
    264       5.8082      2.00000
    265       5.8224      2.00000
    266       5.8457      2.00000
    267       6.2463      2.00000
    268       6.2838      2.00000
    269       6.3164      2.00000
    270       6.3450      2.00000
    271       6.3632      2.00000
    272       6.3787      2.00000
    273       6.4194      2.00000
    274       6.4325      2.00000
    275       6.4533      2.00000
    276       6.4933      2.00000
    277       6.5279      2.00000
    278       6.5547      2.00000
    279       6.6387      2.00000
    280       6.6663      2.00000
    281       6.6713      2.00000
    282       6.6933      2.00000
    283       6.7101      2.00000
    284       6.7231      2.00000
    285       6.7433      2.00000
    286       6.7645      2.00000
    287       6.7805      2.00000
    288       6.8200      2.00000
    289       6.8490      2.00000
    290       6.8634      2.00000
    291       6.8791      2.00000
    292       6.9018      2.00000
    293       6.9083      2.00000
    294       6.9212      2.00000
    295       6.9454      2.00000
    296       6.9556      2.00000
    297       6.9831      2.00000
    298       7.0068      2.00000
    299       7.0231      2.00000
    300       7.0634      2.00000
    301       7.0810      2.00000
    302       7.0914      2.00000
    303       7.1064      2.00000
    304       7.1247      2.00000
    305       7.1372      2.00000
    306       7.1577      2.00000
    307       7.1708      2.00000
    308       7.1920      2.00000
    309       7.2231      2.00000
    310       7.2369      2.00000
    311       7.2600      2.00000
    312       7.2767      2.00000
    313       7.2902      2.00000
    314       7.3164      2.00000
    315       7.3349      2.00000
    316       7.3569      2.00000
    317       7.4002      2.00000
    318       7.4582      2.00000
    319       7.4825      2.00000
    320       7.5217      2.00000
    321       7.5582      2.00000
    322       7.5827      2.00000
    323       7.5999      2.00000
    324       7.6302      2.00000
    325       7.6645      2.00000
    326       7.6781      2.00000
    327       7.7222      2.00000
    328       7.7531      2.00000
    329       7.7903      2.00000
    330       7.8517      2.00000
    331       7.8864      2.00000
    332       7.9306      2.00000
    333       7.9496      2.00000
    334       7.9759      2.00000
    335       8.0067      2.00000
    336       8.0263      2.00000
    337       8.0713      2.00000
    338       8.1129      2.00000
    339       8.1247      2.00000
    340       8.1673      2.00000
    341       8.1975      2.00000
    342       8.2103      2.00000
    343       8.2259      2.00000
    344       8.2652      2.00000
    345       8.3013      2.00000
    346       8.3321      2.00000
    347       8.3651      2.00000
    348       8.3863      2.00000
    349       8.4244      2.00000
    350       8.4539      2.00000
    351       8.4698      2.00000
    352       8.4977      2.00000
    353       8.5012      2.00000
    354       8.5370      2.00000
    355       8.5564      2.00000
    356       8.5844      2.00000
    357       8.5946      2.00000
    358       8.6032      2.00000
    359       8.6436      2.00000
    360       8.6632      2.00000
    361       8.6822      2.00000
    362       8.7114      2.00000
    363       8.7323      2.00000
    364       8.7666      2.00000
    365       8.7741      2.00000
    366       8.7953      2.00000
    367       8.8041      2.00000
    368       8.8448      2.00000
    369       8.8741      2.00000
    370       8.8853      2.00000
    371       8.9054      2.00000
    372       8.9459      2.00000
    373       8.9523      2.00000
    374       8.9749      2.00000
    375       9.0087      2.00000
    376       9.0346      2.00000
    377       9.0555      2.00000
    378       9.0720      2.00000
    379       9.1067      1.99999
    380       9.1301      1.99982
    381       9.1671      1.99314
    382       9.1918      1.95519
    383       9.2250      1.71380
    384       9.2428      1.42563
    385       9.2614      1.02827
    386       9.2895      0.44912
    387       9.3162      0.13007
    388       9.3539      0.00986
    389       9.3773      0.00119
    390       9.3916      0.00027
    391       9.4067      0.00005
    392       9.4317      0.00000
    393       9.4477      0.00000
    394       9.4627      0.00000
    395       9.5155      0.00000
    396       9.5334      0.00000
    397       9.5433      0.00000
    398       9.5597      0.00000
    399       9.5842      0.00000
    400       9.6175      0.00000
    401       9.6391      0.00000
    402       9.6472      0.00000
    403       9.6794      0.00000
    404       9.7034      0.00000
    405       9.7280      0.00000
    406       9.7497      0.00000
    407       9.7583      0.00000
    408       9.7758      0.00000
    409       9.7943      0.00000
    410       9.8213      0.00000
    411       9.8474      0.00000
    412       9.8758      0.00000
    413       9.8855      0.00000
    414       9.8987      0.00000
    415       9.9354      0.00000
    416       9.9592      0.00000
    417       9.9761      0.00000
    418       9.9922      0.00000
    419      10.0125      0.00000
    420      10.0334      0.00000
    421      10.0625      0.00000
    422      10.0787      0.00000
    423      10.0881      0.00000
    424      10.1220      0.00000
    425      10.1403      0.00000
    426      10.1656      0.00000
    427      10.1736      0.00000
    428      10.1888      0.00000
    429      10.1994      0.00000
    430      10.2353      0.00000
    431      10.2547      0.00000
    432      10.2743      0.00000
    433      10.2936      0.00000
    434      10.3088      0.00000
    435      10.3240      0.00000
    436      10.3501      0.00000
    437      10.3790      0.00000
    438      10.3887      0.00000
    439      10.4058      0.00000
    440      10.4126      0.00000
    441      10.4315      0.00000
    442      10.4588      0.00000
    443      10.4826      0.00000
    444      10.5022      0.00000
    445      10.5284      0.00000
    446      10.5393      0.00000
    447      10.5631      0.00000
    448      10.5900      0.00000
    449      10.6000      0.00000
    450      10.6264      0.00000
    451      10.6496      0.00000
    452      10.6813      0.00000
    453      10.7006      0.00000
    454      10.7107      0.00000
    455      10.7235      0.00000
    456      10.7434      0.00000
    457      10.7727      0.00000
    458      10.7901      0.00000
    459      10.8302      0.00000
    460      10.8493      0.00000
    461      10.8835      0.00000
    462      10.9209      0.00000
    463      10.9566      0.00000
    464      10.9864      0.00000

 k-point    25 :      -0.2500    0.5000    0.2000
  band No.  band energies     occupation 
      1     -45.5192      2.00000
      2     -39.4662      2.00000
      3     -39.4258      2.00000
      4     -39.4083      2.00000
      5     -39.4006      2.00000
      6     -39.3973      2.00000
      7     -39.3863      2.00000
      8     -39.3749      2.00000
      9     -39.3642      2.00000
     10     -39.3580      2.00000
     11     -39.3441      2.00000
     12     -39.3374      2.00000
     13     -39.3314      2.00000
     14     -39.3308      2.00000
     15     -39.3206      2.00000
     16     -39.3072      2.00000
     17     -39.3034      2.00000
     18     -39.2947      2.00000
     19     -39.2932      2.00000
     20     -39.2894      2.00000
     21     -39.2794      2.00000
     22     -39.2715      2.00000
     23     -39.2678      2.00000
     24     -39.2605      2.00000
     25     -39.2453      2.00000
     26     -39.2431      2.00000
     27     -39.2402      2.00000
     28     -39.2374      2.00000
     29     -39.2339      2.00000
     30     -39.2309      2.00000
     31     -39.2259      2.00000
     32     -39.2146      2.00000
     33     -39.2123      2.00000
     34     -39.2030      2.00000
     35     -39.1964      2.00000
     36     -39.1903      2.00000
     37     -39.1786      2.00000
     38     -39.1737      2.00000
     39     -39.1652      2.00000
     40     -39.1542      2.00000
     41     -39.1512      2.00000
     42     -39.1489      2.00000
     43     -39.1463      2.00000
     44     -39.1346      2.00000
     45     -39.1293      2.00000
     46     -39.1227      2.00000
     47     -39.1145      2.00000
     48     -39.1082      2.00000
     49     -39.1051      2.00000
     50     -39.1006      2.00000
     51     -39.0978      2.00000
     52     -39.0942      2.00000
     53     -39.0830      2.00000
     54     -39.0705      2.00000
     55     -39.0640      2.00000
     56     -39.0610      2.00000
     57     -39.0306      2.00000
     58     -39.0253      2.00000
     59     -39.0215      2.00000
     60     -39.0196      2.00000
     61     -39.0151      2.00000
     62     -38.9512      2.00000
     63     -38.9137      2.00000
     64     -38.9131      2.00000
     65     -21.6081      2.00000
     66     -21.5850      2.00000
     67     -21.5569      2.00000
     68     -18.0325      2.00000
     69     -17.9775      2.00000
     70     -17.9709      2.00000
     71     -17.9654      2.00000
     72     -17.9561      2.00000
     73     -17.9467      2.00000
     74     -17.9352      2.00000
     75     -17.9256      2.00000
     76     -17.9156      2.00000
     77     -17.9028      2.00000
     78     -17.8994      2.00000
     79     -17.8902      2.00000
     80     -17.8856      2.00000
     81     -17.8763      2.00000
     82     -17.8609      2.00000
     83     -17.8540      2.00000
     84     -17.8480      2.00000
     85     -17.8387      2.00000
     86     -17.8281      2.00000
     87     -17.8217      2.00000
     88     -17.8153      2.00000
     89     -17.8078      2.00000
     90     -17.8041      2.00000
     91     -17.8010      2.00000
     92     -17.7909      2.00000
     93     -17.7833      2.00000
     94     -17.7728      2.00000
     95     -17.7678      2.00000
     96     -17.7628      2.00000
     97     -17.7493      2.00000
     98     -17.7465      2.00000
     99     -17.7363      2.00000
    100     -17.7314      2.00000
    101     -17.7264      2.00000
    102     -17.7229      2.00000
    103     -17.7172      2.00000
    104     -17.6978      2.00000
    105     -17.6933      2.00000
    106     -17.6810      2.00000
    107     -17.6756      2.00000
    108     -17.6684      2.00000
    109     -17.6576      2.00000
    110     -17.6503      2.00000
    111     -17.6428      2.00000
    112     -17.6362      2.00000
    113     -17.6290      2.00000
    114     -17.6246      2.00000
    115     -17.6199      2.00000
    116     -17.6168      2.00000
    117     -17.6003      2.00000
    118     -17.5939      2.00000
    119     -17.5866      2.00000
    120     -17.5762      2.00000
    121     -17.5739      2.00000
    122     -17.5552      2.00000
    123     -17.5491      2.00000
    124     -17.5440      2.00000
    125     -17.5251      2.00000
    126     -17.5209      2.00000
    127     -17.5115      2.00000
    128     -17.5019      2.00000
    129     -17.4910      2.00000
    130     -17.4849      2.00000
    131     -17.4748      2.00000
    132     -17.4657      2.00000
    133     -17.4590      2.00000
    134     -17.4554      2.00000
    135     -17.4386      2.00000
    136     -17.4319      2.00000
    137     -17.4218      2.00000
    138     -17.4169      2.00000
    139     -17.4107      2.00000
    140     -17.3949      2.00000
    141     -17.3892      2.00000
    142     -17.3789      2.00000
    143     -17.3693      2.00000
    144     -17.3667      2.00000
    145     -17.3610      2.00000
    146     -17.3560      2.00000
    147     -17.3523      2.00000
    148     -17.3387      2.00000
    149     -17.3350      2.00000
    150     -17.3282      2.00000
    151     -17.3231      2.00000
    152     -17.3125      2.00000
    153     -17.3103      2.00000
    154     -17.3011      2.00000
    155     -17.2951      2.00000
    156     -17.2814      2.00000
    157     -17.2773      2.00000
    158     -17.2742      2.00000
    159     -17.2684      2.00000
    160     -17.2582      2.00000
    161     -17.2503      2.00000
    162     -17.2426      2.00000
    163     -17.2367      2.00000
    164     -17.2328      2.00000
    165     -17.2276      2.00000
    166     -17.2247      2.00000
    167     -17.2093      2.00000
    168     -17.2056      2.00000
    169     -17.1949      2.00000
    170     -17.1886      2.00000
    171     -17.1838      2.00000
    172     -17.1764      2.00000
    173     -17.1669      2.00000
    174     -17.1638      2.00000
    175     -17.1606      2.00000
    176     -17.1570      2.00000
    177     -17.1503      2.00000
    178     -17.1414      2.00000
    179     -17.1369      2.00000
    180     -17.1327      2.00000
    181     -17.1255      2.00000
    182     -17.1205      2.00000
    183     -17.1173      2.00000
    184     -17.1076      2.00000
    185     -17.1058      2.00000
    186     -17.0997      2.00000
    187     -17.0955      2.00000
    188     -17.0949      2.00000
    189     -17.0873      2.00000
    190     -17.0797      2.00000
    191     -17.0732      2.00000
    192     -17.0704      2.00000
    193     -17.0673      2.00000
    194     -17.0622      2.00000
    195     -17.0595      2.00000
    196     -17.0558      2.00000
    197     -17.0495      2.00000
    198     -17.0484      2.00000
    199     -17.0353      2.00000
    200     -17.0317      2.00000
    201     -17.0255      2.00000
    202     -17.0204      2.00000
    203     -17.0145      2.00000
    204     -17.0116      2.00000
    205     -17.0079      2.00000
    206     -17.0005      2.00000
    207     -16.9961      2.00000
    208     -16.9933      2.00000
    209     -16.9854      2.00000
    210     -16.9782      2.00000
    211     -16.9732      2.00000
    212     -16.9693      2.00000
    213     -16.9665      2.00000
    214     -16.9605      2.00000
    215     -16.9575      2.00000
    216     -16.9504      2.00000
    217     -16.9463      2.00000
    218     -16.9389      2.00000
    219     -16.9351      2.00000
    220     -16.9320      2.00000
    221     -16.9284      2.00000
    222     -16.9230      2.00000
    223     -16.9189      2.00000
    224     -16.9145      2.00000
    225     -16.9095      2.00000
    226     -16.9018      2.00000
    227     -16.8975      2.00000
    228     -16.8918      2.00000
    229     -16.8857      2.00000
    230     -16.8795      2.00000
    231     -16.8718      2.00000
    232     -16.8630      2.00000
    233     -16.8582      2.00000
    234     -16.8535      2.00000
    235     -16.8501      2.00000
    236     -16.8420      2.00000
    237     -16.8348      2.00000
    238     -16.8284      2.00000
    239     -16.8213      2.00000
    240     -16.8200      2.00000
    241     -16.8141      2.00000
    242     -16.8074      2.00000
    243     -16.7993      2.00000
    244     -16.7832      2.00000
    245     -16.7776      2.00000
    246     -16.7678      2.00000
    247     -16.7605      2.00000
    248     -16.7566      2.00000
    249     -16.7445      2.00000
    250     -16.7291      2.00000
    251     -16.7124      2.00000
    252     -16.7058      2.00000
    253     -16.6952      2.00000
    254     -16.6696      2.00000
    255     -16.6506      2.00000
    256     -16.6425      2.00000
    257       4.3129      2.00000
    258       4.3422      2.00000
    259       4.8981      2.00000
    260       4.9233      2.00000
    261       5.3746      2.00000
    262       5.3989      2.00000
    263       5.7862      2.00000
    264       5.8061      2.00000
    265       5.8276      2.00000
    266       5.8434      2.00000
    267       6.2477      2.00000
    268       6.2818      2.00000
    269       6.3261      2.00000
    270       6.3423      2.00000
    271       6.3693      2.00000
    272       6.3819      2.00000
    273       6.4131      2.00000
    274       6.4262      2.00000
    275       6.4543      2.00000
    276       6.4928      2.00000
    277       6.5277      2.00000
    278       6.5688      2.00000
    279       6.6329      2.00000
    280       6.6482      2.00000
    281       6.6683      2.00000
    282       6.6790      2.00000
    283       6.7027      2.00000
    284       6.7318      2.00000
    285       6.7559      2.00000
    286       6.7661      2.00000
    287       6.7956      2.00000
    288       6.8010      2.00000
    289       6.8283      2.00000
    290       6.8542      2.00000
    291       6.8747      2.00000
    292       6.8974      2.00000
    293       6.9048      2.00000
    294       6.9292      2.00000
    295       6.9442      2.00000
    296       6.9844      2.00000
    297       6.9937      2.00000
    298       7.0111      2.00000
    299       7.0434      2.00000
    300       7.0573      2.00000
    301       7.0771      2.00000
    302       7.0895      2.00000
    303       7.1022      2.00000
    304       7.1194      2.00000
    305       7.1407      2.00000
    306       7.1570      2.00000
    307       7.1776      2.00000
    308       7.1927      2.00000
    309       7.2251      2.00000
    310       7.2491      2.00000
    311       7.2650      2.00000
    312       7.2792      2.00000
    313       7.2929      2.00000
    314       7.3144      2.00000
    315       7.3414      2.00000
    316       7.3862      2.00000
    317       7.4045      2.00000
    318       7.4572      2.00000
    319       7.4735      2.00000
    320       7.5055      2.00000
    321       7.5283      2.00000
    322       7.5794      2.00000
    323       7.5974      2.00000
    324       7.6345      2.00000
    325       7.6569      2.00000
    326       7.6818      2.00000
    327       7.7080      2.00000
    328       7.7551      2.00000
    329       7.7881      2.00000
    330       7.8418      2.00000
    331       7.8897      2.00000
    332       7.9296      2.00000
    333       7.9587      2.00000
    334       7.9892      2.00000
    335       8.0283      2.00000
    336       8.0514      2.00000
    337       8.0596      2.00000
    338       8.0944      2.00000
    339       8.1049      2.00000
    340       8.1466      2.00000
    341       8.1732      2.00000
    342       8.1936      2.00000
    343       8.2398      2.00000
    344       8.2641      2.00000
    345       8.3103      2.00000
    346       8.3204      2.00000
    347       8.3689      2.00000
    348       8.3879      2.00000
    349       8.4057      2.00000
    350       8.4576      2.00000
    351       8.4665      2.00000
    352       8.4933      2.00000
    353       8.5189      2.00000
    354       8.5299      2.00000
    355       8.5559      2.00000
    356       8.5735      2.00000
    357       8.5931      2.00000
    358       8.6287      2.00000
    359       8.6570      2.00000
    360       8.6755      2.00000
    361       8.7015      2.00000
    362       8.7199      2.00000
    363       8.7331      2.00000
    364       8.7473      2.00000
    365       8.7848      2.00000
    366       8.7984      2.00000
    367       8.8300      2.00000
    368       8.8522      2.00000
    369       8.8848      2.00000
    370       8.8912      2.00000
    371       8.9231      2.00000
    372       8.9604      2.00000
    373       8.9742      2.00000
    374       8.9889      2.00000
    375       9.0260      2.00000
    376       9.0306      2.00000
    377       9.0424      2.00000
    378       9.0523      2.00000
    379       9.0785      2.00000
    380       9.1026      1.99999
    381       9.1528      1.99813
    382       9.2050      1.89759
    383       9.2254      1.70840
    384       9.2525      1.22798
    385       9.2669      0.90643
    386       9.2979      0.31965
    387       9.3050      0.23132
    388       9.3230      0.08826
    389       9.3674      0.00306
    390       9.3912      0.00028
    391       9.4143      0.00002
    392       9.4292      0.00000
    393       9.4486      0.00000
    394       9.4775      0.00000
    395       9.4986      0.00000
    396       9.5083      0.00000
    397       9.5176      0.00000
    398       9.5704      0.00000
    399       9.5983      0.00000
    400       9.6178      0.00000
    401       9.6275      0.00000
    402       9.6467      0.00000
    403       9.6712      0.00000
    404       9.6991      0.00000
    405       9.7020      0.00000
    406       9.7216      0.00000
    407       9.7505      0.00000
    408       9.7816      0.00000
    409       9.8016      0.00000
    410       9.8049      0.00000
    411       9.8212      0.00000
    412       9.8710      0.00000
    413       9.8833      0.00000
    414       9.9096      0.00000
    415       9.9253      0.00000
    416       9.9463      0.00000
    417       9.9780      0.00000
    418      10.0069      0.00000
    419      10.0284      0.00000
    420      10.0488      0.00000
    421      10.0713      0.00000
    422      10.0875      0.00000
    423      10.1031      0.00000
    424      10.1280      0.00000
    425      10.1445      0.00000
    426      10.1604      0.00000
    427      10.1865      0.00000
    428      10.1937      0.00000
    429      10.2106      0.00000
    430      10.2232      0.00000
    431      10.2511      0.00000
    432      10.2703      0.00000
    433      10.2895      0.00000
    434      10.3257      0.00000
    435      10.3448      0.00000
    436      10.3555      0.00000
    437      10.3741      0.00000
    438      10.3945      0.00000
    439      10.4172      0.00000
    440      10.4332      0.00000
    441      10.4665      0.00000
    442      10.4722      0.00000
    443      10.4851      0.00000
    444      10.4958      0.00000
    445      10.5257      0.00000
    446      10.5476      0.00000
    447      10.5690      0.00000
    448      10.5838      0.00000
    449      10.6054      0.00000
    450      10.6292      0.00000
    451      10.6418      0.00000
    452      10.6655      0.00000
    453      10.6793      0.00000
    454      10.7179      0.00000
    455      10.7313      0.00000
    456      10.7440      0.00000
    457      10.7772      0.00000
    458      10.8118      0.00000
    459      10.8276      0.00000
    460      10.8465      0.00000
    461      10.8765      0.00000
    462      10.9095      0.00000
    463      10.9543      0.00000
    464      10.9708      0.00000

 k-point    26 :       0.5000    0.5000    0.2000
  band No.  band energies     occupation 
      1     -45.5192      2.00000
      2     -39.4661      2.00000
      3     -39.4251      2.00000
      4     -39.4093      2.00000
      5     -39.4010      2.00000
      6     -39.3970      2.00000
      7     -39.3862      2.00000
      8     -39.3750      2.00000
      9     -39.3651      2.00000
     10     -39.3580      2.00000
     11     -39.3432      2.00000
     12     -39.3371      2.00000
     13     -39.3326      2.00000
     14     -39.3303      2.00000
     15     -39.3203      2.00000
     16     -39.3060      2.00000
     17     -39.3037      2.00000
     18     -39.2947      2.00000
     19     -39.2936      2.00000
     20     -39.2898      2.00000
     21     -39.2786      2.00000
     22     -39.2728      2.00000
     23     -39.2674      2.00000
     24     -39.2602      2.00000
     25     -39.2449      2.00000
     26     -39.2421      2.00000
     27     -39.2391      2.00000
     28     -39.2381      2.00000
     29     -39.2340      2.00000
     30     -39.2319      2.00000
     31     -39.2254      2.00000
     32     -39.2154      2.00000
     33     -39.2123      2.00000
     34     -39.2034      2.00000
     35     -39.1969      2.00000
     36     -39.1894      2.00000
     37     -39.1801      2.00000
     38     -39.1725      2.00000
     39     -39.1646      2.00000
     40     -39.1545      2.00000
     41     -39.1522      2.00000
     42     -39.1485      2.00000
     43     -39.1462      2.00000
     44     -39.1353      2.00000
     45     -39.1285      2.00000
     46     -39.1230      2.00000
     47     -39.1144      2.00000
     48     -39.1075      2.00000
     49     -39.1051      2.00000
     50     -39.1013      2.00000
     51     -39.0981      2.00000
     52     -39.0938      2.00000
     53     -39.0831      2.00000
     54     -39.0705      2.00000
     55     -39.0640      2.00000
     56     -39.0608      2.00000
     57     -39.0306      2.00000
     58     -39.0253      2.00000
     59     -39.0213      2.00000
     60     -39.0197      2.00000
     61     -39.0151      2.00000
     62     -38.9513      2.00000
     63     -38.9137      2.00000
     64     -38.9131      2.00000
     65     -21.6081      2.00000
     66     -21.5850      2.00000
     67     -21.5569      2.00000
     68     -18.0306      2.00000
     69     -17.9756      2.00000
     70     -17.9690      2.00000
     71     -17.9628      2.00000
     72     -17.9520      2.00000
     73     -17.9427      2.00000
     74     -17.9314      2.00000
     75     -17.9266      2.00000
     76     -17.9185      2.00000
     77     -17.9030      2.00000
     78     -17.8977      2.00000
     79     -17.8900      2.00000
     80     -17.8854      2.00000
     81     -17.8741      2.00000
     82     -17.8641      2.00000
     83     -17.8559      2.00000
     84     -17.8448      2.00000
     85     -17.8382      2.00000
     86     -17.8257      2.00000
     87     -17.8195      2.00000
     88     -17.8154      2.00000
     89     -17.8093      2.00000
     90     -17.7998      2.00000
     91     -17.7962      2.00000
     92     -17.7889      2.00000
     93     -17.7794      2.00000
     94     -17.7741      2.00000
     95     -17.7683      2.00000
     96     -17.7620      2.00000
     97     -17.7520      2.00000
     98     -17.7466      2.00000
     99     -17.7387      2.00000
    100     -17.7383      2.00000
    101     -17.7290      2.00000
    102     -17.7210      2.00000
    103     -17.7164      2.00000
    104     -17.7023      2.00000
    105     -17.6948      2.00000
    106     -17.6864      2.00000
    107     -17.6792      2.00000
    108     -17.6681      2.00000
    109     -17.6583      2.00000
    110     -17.6483      2.00000
    111     -17.6414      2.00000
    112     -17.6370      2.00000
    113     -17.6304      2.00000
    114     -17.6256      2.00000
    115     -17.6190      2.00000
    116     -17.6144      2.00000
    117     -17.6029      2.00000
    118     -17.5962      2.00000
    119     -17.5873      2.00000
    120     -17.5836      2.00000
    121     -17.5780      2.00000
    122     -17.5722      2.00000
    123     -17.5556      2.00000
    124     -17.5416      2.00000
    125     -17.5373      2.00000
    126     -17.5273      2.00000
    127     -17.5133      2.00000
    128     -17.5076      2.00000
    129     -17.5023      2.00000
    130     -17.4876      2.00000
    131     -17.4819      2.00000
    132     -17.4687      2.00000
    133     -17.4592      2.00000
    134     -17.4547      2.00000
    135     -17.4470      2.00000
    136     -17.4357      2.00000
    137     -17.4291      2.00000
    138     -17.4176      2.00000
    139     -17.4043      2.00000
    140     -17.3947      2.00000
    141     -17.3877      2.00000
    142     -17.3812      2.00000
    143     -17.3719      2.00000
    144     -17.3643      2.00000
    145     -17.3592      2.00000
    146     -17.3455      2.00000
    147     -17.3417      2.00000
    148     -17.3330      2.00000
    149     -17.3288      2.00000
    150     -17.3199      2.00000
    151     -17.3161      2.00000
    152     -17.3080      2.00000
    153     -17.3002      2.00000
    154     -17.2939      2.00000
    155     -17.2829      2.00000
    156     -17.2813      2.00000
    157     -17.2785      2.00000
    158     -17.2642      2.00000
    159     -17.2601      2.00000
    160     -17.2553      2.00000
    161     -17.2486      2.00000
    162     -17.2419      2.00000
    163     -17.2365      2.00000
    164     -17.2304      2.00000
    165     -17.2251      2.00000
    166     -17.2204      2.00000
    167     -17.2106      2.00000
    168     -17.2028      2.00000
    169     -17.1983      2.00000
    170     -17.1875      2.00000
    171     -17.1784      2.00000
    172     -17.1775      2.00000
    173     -17.1684      2.00000
    174     -17.1637      2.00000
    175     -17.1597      2.00000
    176     -17.1563      2.00000
    177     -17.1497      2.00000
    178     -17.1406      2.00000
    179     -17.1384      2.00000
    180     -17.1328      2.00000
    181     -17.1281      2.00000
    182     -17.1264      2.00000
    183     -17.1141      2.00000
    184     -17.1096      2.00000
    185     -17.1060      2.00000
    186     -17.1023      2.00000
    187     -17.0947      2.00000
    188     -17.0912      2.00000
    189     -17.0841      2.00000
    190     -17.0832      2.00000
    191     -17.0749      2.00000
    192     -17.0734      2.00000
    193     -17.0670      2.00000
    194     -17.0655      2.00000
    195     -17.0574      2.00000
    196     -17.0552      2.00000
    197     -17.0492      2.00000
    198     -17.0403      2.00000
    199     -17.0342      2.00000
    200     -17.0296      2.00000
    201     -17.0263      2.00000
    202     -17.0208      2.00000
    203     -17.0165      2.00000
    204     -17.0090      2.00000
    205     -17.0035      2.00000
    206     -16.9994      2.00000
    207     -16.9977      2.00000
    208     -16.9899      2.00000
    209     -16.9870      2.00000
    210     -16.9802      2.00000
    211     -16.9758      2.00000
    212     -16.9716      2.00000
    213     -16.9696      2.00000
    214     -16.9613      2.00000
    215     -16.9575      2.00000
    216     -16.9514      2.00000
    217     -16.9477      2.00000
    218     -16.9423      2.00000
    219     -16.9356      2.00000
    220     -16.9301      2.00000
    221     -16.9276      2.00000
    222     -16.9243      2.00000
    223     -16.9212      2.00000
    224     -16.9154      2.00000
    225     -16.9091      2.00000
    226     -16.9036      2.00000
    227     -16.8967      2.00000
    228     -16.8914      2.00000
    229     -16.8840      2.00000
    230     -16.8808      2.00000
    231     -16.8742      2.00000
    232     -16.8615      2.00000
    233     -16.8584      2.00000
    234     -16.8540      2.00000
    235     -16.8503      2.00000
    236     -16.8437      2.00000
    237     -16.8383      2.00000
    238     -16.8281      2.00000
    239     -16.8255      2.00000
    240     -16.8177      2.00000
    241     -16.8142      2.00000
    242     -16.8084      2.00000
    243     -16.7995      2.00000
    244     -16.7849      2.00000
    245     -16.7773      2.00000
    246     -16.7699      2.00000
    247     -16.7600      2.00000
    248     -16.7556      2.00000
    249     -16.7484      2.00000
    250     -16.7295      2.00000
    251     -16.7129      2.00000
    252     -16.7049      2.00000
    253     -16.6952      2.00000
    254     -16.6679      2.00000
    255     -16.6509      2.00000
    256     -16.6450      2.00000
    257       4.5222      2.00000
    258       4.5528      2.00000
    259       4.5700      2.00000
    260       4.5859      2.00000
    261       5.5465      2.00000
    262       5.5652      2.00000
    263       5.5801      2.00000
    264       5.5976      2.00000
    265       6.1856      2.00000
    266       6.2139      2.00000
    267       6.2340      2.00000
    268       6.2489      2.00000
    269       6.3500      2.00000
    270       6.3703      2.00000
    271       6.3942      2.00000
    272       6.4165      2.00000
    273       6.4755      2.00000
    274       6.4983      2.00000
    275       6.5097      2.00000
    276       6.5196      2.00000
    277       6.5432      2.00000
    278       6.5539      2.00000
    279       6.5835      2.00000
    280       6.6094      2.00000
    281       6.6277      2.00000
    282       6.6443      2.00000
    283       6.6564      2.00000
    284       6.6697      2.00000
    285       6.7403      2.00000
    286       6.7471      2.00000
    287       6.7721      2.00000
    288       6.7893      2.00000
    289       6.8135      2.00000
    290       6.8267      2.00000
    291       6.8511      2.00000
    292       6.8599      2.00000
    293       6.8854      2.00000
    294       6.9018      2.00000
    295       6.9112      2.00000
    296       6.9257      2.00000
    297       6.9391      2.00000
    298       6.9631      2.00000
    299       6.9709      2.00000
    300       7.0015      2.00000
    301       7.0208      2.00000
    302       7.0402      2.00000
    303       7.0811      2.00000
    304       7.1117      2.00000
    305       7.1442      2.00000
    306       7.1595      2.00000
    307       7.1961      2.00000
    308       7.2118      2.00000
    309       7.2264      2.00000
    310       7.2388      2.00000
    311       7.2654      2.00000
    312       7.3062      2.00000
    313       7.3203      2.00000
    314       7.3563      2.00000
    315       7.3677      2.00000
    316       7.4028      2.00000
    317       7.4310      2.00000
    318       7.4403      2.00000
    319       7.4684      2.00000
    320       7.4894      2.00000
    321       7.5069      2.00000
    322       7.5429      2.00000
    323       7.5630      2.00000
    324       7.6008      2.00000
    325       7.6227      2.00000
    326       7.6531      2.00000
    327       7.7048      2.00000
    328       7.7102      2.00000
    329       7.7282      2.00000
    330       7.7862      2.00000
    331       7.8221      2.00000
    332       7.8702      2.00000
    333       7.9283      2.00000
    334       7.9882      2.00000
    335       8.0196      2.00000
    336       8.0344      2.00000
    337       8.0637      2.00000
    338       8.1017      2.00000
    339       8.1181      2.00000
    340       8.1413      2.00000
    341       8.1773      2.00000
    342       8.1897      2.00000
    343       8.2417      2.00000
    344       8.2742      2.00000
    345       8.3211      2.00000
    346       8.3726      2.00000
    347       8.3954      2.00000
    348       8.4118      2.00000
    349       8.4586      2.00000
    350       8.4695      2.00000
    351       8.5089      2.00000
    352       8.5183      2.00000
    353       8.5407      2.00000
    354       8.5674      2.00000
    355       8.5853      2.00000
    356       8.6038      2.00000
    357       8.6260      2.00000
    358       8.6349      2.00000
    359       8.6591      2.00000
    360       8.6884      2.00000
    361       8.7033      2.00000
    362       8.7267      2.00000
    363       8.7425      2.00000
    364       8.7837      2.00000
    365       8.8105      2.00000
    366       8.8318      2.00000
    367       8.8519      2.00000
    368       8.8570      2.00000
    369       8.8763      2.00000
    370       8.9117      2.00000
    371       8.9366      2.00000
    372       8.9554      2.00000
    373       8.9751      2.00000
    374       9.0025      2.00000
    375       9.0237      2.00000
    376       9.0453      2.00000
    377       9.0668      2.00000
    378       9.0775      2.00000
    379       9.1023      1.99999
    380       9.1375      1.99960
    381       9.1449      1.99913
    382       9.1762      1.98562
    383       9.1986      1.93004
    384       9.2393      1.49265
    385       9.2606      1.04828
    386       9.2761      0.70493
    387       9.3150      0.13933
    388       9.3415      0.02582
    389       9.3640      0.00416
    390       9.3857      0.00050
    391       9.4120      0.00002
    392       9.4315      0.00000
    393       9.4565      0.00000
    394       9.4977      0.00000
    395       9.5278      0.00000
    396       9.5399      0.00000
    397       9.5763      0.00000
    398       9.5981      0.00000
    399       9.6095      0.00000
    400       9.6378      0.00000
    401       9.6471      0.00000
    402       9.6677      0.00000
    403       9.6834      0.00000
    404       9.7039      0.00000
    405       9.7301      0.00000
    406       9.7507      0.00000
    407       9.7735      0.00000
    408       9.7915      0.00000
    409       9.8073      0.00000
    410       9.8193      0.00000
    411       9.8378      0.00000
    412       9.8668      0.00000
    413       9.8706      0.00000
    414       9.9073      0.00000
    415       9.9432      0.00000
    416       9.9639      0.00000
    417       9.9926      0.00000
    418      10.0061      0.00000
    419      10.0124      0.00000
    420      10.0371      0.00000
    421      10.0528      0.00000
    422      10.0722      0.00000
    423      10.0913      0.00000
    424      10.1073      0.00000
    425      10.1287      0.00000
    426      10.1464      0.00000
    427      10.1611      0.00000
    428      10.1805      0.00000
    429      10.1946      0.00000
    430      10.2221      0.00000
    431      10.2479      0.00000
    432      10.2593      0.00000
    433      10.2838      0.00000
    434      10.3091      0.00000
    435      10.3166      0.00000
    436      10.3292      0.00000
    437      10.3526      0.00000
    438      10.3857      0.00000
    439      10.3946      0.00000
    440      10.4187      0.00000
    441      10.4293      0.00000
    442      10.4383      0.00000
    443      10.4613      0.00000
    444      10.4832      0.00000
    445      10.4972      0.00000
    446      10.5281      0.00000
    447      10.5580      0.00000
    448      10.5661      0.00000
    449      10.6044      0.00000
    450      10.6250      0.00000
    451      10.6294      0.00000
    452      10.6478      0.00000
    453      10.6647      0.00000
    454      10.7080      0.00000
    455      10.7201      0.00000
    456      10.7380      0.00000
    457      10.7508      0.00000
    458      10.8056      0.00000
    459      10.8215      0.00000
    460      10.8420      0.00000
    461      10.8748      0.00000
    462      10.9009      0.00000
    463      10.9344      0.00000
    464      10.9892      0.00000

 k-point    27 :       0.0000    0.0000    0.4000
  band No.  band energies     occupation 
      1     -45.5192      2.00000
      2     -39.4663      2.00000
      3     -39.4265      2.00000
      4     -39.4088      2.00000
      5     -39.3976      2.00000
      6     -39.3944      2.00000
      7     -39.3871      2.00000
      8     -39.3784      2.00000
      9     -39.3610      2.00000
     10     -39.3584      2.00000
     11     -39.3443      2.00000
     12     -39.3416      2.00000
     13     -39.3341      2.00000
     14     -39.3257      2.00000
     15     -39.3193      2.00000
     16     -39.3122      2.00000
     17     -39.3005      2.00000
     18     -39.2966      2.00000
     19     -39.2908      2.00000
     20     -39.2892      2.00000
     21     -39.2826      2.00000
     22     -39.2722      2.00000
     23     -39.2643      2.00000
     24     -39.2603      2.00000
     25     -39.2513      2.00000
     26     -39.2431      2.00000
     27     -39.2389      2.00000
     28     -39.2370      2.00000
     29     -39.2331      2.00000
     30     -39.2280      2.00000
     31     -39.2253      2.00000
     32     -39.2166      2.00000
     33     -39.2121      2.00000
     34     -39.2048      2.00000
     35     -39.1979      2.00000
     36     -39.1899      2.00000
     37     -39.1785      2.00000
     38     -39.1741      2.00000
     39     -39.1632      2.00000
     40     -39.1553      2.00000
     41     -39.1506      2.00000
     42     -39.1491      2.00000
     43     -39.1444      2.00000
     44     -39.1345      2.00000
     45     -39.1282      2.00000
     46     -39.1235      2.00000
     47     -39.1136      2.00000
     48     -39.1084      2.00000
     49     -39.1046      2.00000
     50     -39.1004      2.00000
     51     -39.0958      2.00000
     52     -39.0944      2.00000
     53     -39.0827      2.00000
     54     -39.0714      2.00000
     55     -39.0641      2.00000
     56     -39.0609      2.00000
     57     -39.0315      2.00000
     58     -39.0256      2.00000
     59     -39.0216      2.00000
     60     -39.0196      2.00000
     61     -39.0158      2.00000
     62     -38.9513      2.00000
     63     -38.9136      2.00000
     64     -38.9133      2.00000
     65     -21.6081      2.00000
     66     -21.5850      2.00000
     67     -21.5569      2.00000
     68     -18.0361      2.00000
     69     -18.0019      2.00000
     70     -17.9904      2.00000
     71     -17.9697      2.00000
     72     -17.9636      2.00000
     73     -17.9520      2.00000
     74     -17.9396      2.00000
     75     -17.9239      2.00000
     76     -17.9147      2.00000
     77     -17.9043      2.00000
     78     -17.8974      2.00000
     79     -17.8865      2.00000
     80     -17.8831      2.00000
     81     -17.8621      2.00000
     82     -17.8510      2.00000
     83     -17.8481      2.00000
     84     -17.8384      2.00000
     85     -17.8323      2.00000
     86     -17.8244      2.00000
     87     -17.8229      2.00000
     88     -17.8154      2.00000
     89     -17.8080      2.00000
     90     -17.7991      2.00000
     91     -17.7866      2.00000
     92     -17.7851      2.00000
     93     -17.7782      2.00000
     94     -17.7745      2.00000
     95     -17.7631      2.00000
     96     -17.7551      2.00000
     97     -17.7526      2.00000
     98     -17.7465      2.00000
     99     -17.7402      2.00000
    100     -17.7315      2.00000
    101     -17.7269      2.00000
    102     -17.7220      2.00000
    103     -17.7146      2.00000
    104     -17.7057      2.00000
    105     -17.7037      2.00000
    106     -17.6936      2.00000
    107     -17.6895      2.00000
    108     -17.6783      2.00000
    109     -17.6708      2.00000
    110     -17.6565      2.00000
    111     -17.6428      2.00000
    112     -17.6389      2.00000
    113     -17.6367      2.00000
    114     -17.6304      2.00000
    115     -17.6229      2.00000
    116     -17.6104      2.00000
    117     -17.6008      2.00000
    118     -17.5875      2.00000
    119     -17.5749      2.00000
    120     -17.5661      2.00000
    121     -17.5567      2.00000
    122     -17.5430      2.00000
    123     -17.5383      2.00000
    124     -17.5302      2.00000
    125     -17.5194      2.00000
    126     -17.5126      2.00000
    127     -17.4949      2.00000
    128     -17.4845      2.00000
    129     -17.4819      2.00000
    130     -17.4746      2.00000
    131     -17.4682      2.00000
    132     -17.4554      2.00000
    133     -17.4494      2.00000
    134     -17.4380      2.00000
    135     -17.4304      2.00000
    136     -17.4227      2.00000
    137     -17.4147      2.00000
    138     -17.4078      2.00000
    139     -17.4039      2.00000
    140     -17.3958      2.00000
    141     -17.3915      2.00000
    142     -17.3821      2.00000
    143     -17.3785      2.00000
    144     -17.3713      2.00000
    145     -17.3623      2.00000
    146     -17.3563      2.00000
    147     -17.3492      2.00000
    148     -17.3406      2.00000
    149     -17.3372      2.00000
    150     -17.3328      2.00000
    151     -17.3252      2.00000
    152     -17.3214      2.00000
    153     -17.3138      2.00000
    154     -17.3064      2.00000
    155     -17.2993      2.00000
    156     -17.2930      2.00000
    157     -17.2874      2.00000
    158     -17.2758      2.00000
    159     -17.2674      2.00000
    160     -17.2645      2.00000
    161     -17.2601      2.00000
    162     -17.2526      2.00000
    163     -17.2472      2.00000
    164     -17.2396      2.00000
    165     -17.2326      2.00000
    166     -17.2221      2.00000
    167     -17.2190      2.00000
    168     -17.2077      2.00000
    169     -17.2037      2.00000
    170     -17.1997      2.00000
    171     -17.1921      2.00000
    172     -17.1854      2.00000
    173     -17.1792      2.00000
    174     -17.1712      2.00000
    175     -17.1682      2.00000
    176     -17.1606      2.00000
    177     -17.1553      2.00000
    178     -17.1498      2.00000
    179     -17.1474      2.00000
    180     -17.1408      2.00000
    181     -17.1329      2.00000
    182     -17.1283      2.00000
    183     -17.1224      2.00000
    184     -17.1164      2.00000
    185     -17.1136      2.00000
    186     -17.1082      2.00000
    187     -17.1016      2.00000
    188     -17.0955      2.00000
    189     -17.0897      2.00000
    190     -17.0864      2.00000
    191     -17.0806      2.00000
    192     -17.0756      2.00000
    193     -17.0667      2.00000
    194     -17.0629      2.00000
    195     -17.0582      2.00000
    196     -17.0526      2.00000
    197     -17.0436      2.00000
    198     -17.0402      2.00000
    199     -17.0346      2.00000
    200     -17.0282      2.00000
    201     -17.0261      2.00000
    202     -17.0197      2.00000
    203     -17.0133      2.00000
    204     -17.0125      2.00000
    205     -17.0051      2.00000
    206     -17.0004      2.00000
    207     -16.9901      2.00000
    208     -16.9840      2.00000
    209     -16.9833      2.00000
    210     -16.9781      2.00000
    211     -16.9711      2.00000
    212     -16.9642      2.00000
    213     -16.9601      2.00000
    214     -16.9569      2.00000
    215     -16.9520      2.00000
    216     -16.9476      2.00000
    217     -16.9410      2.00000
    218     -16.9362      2.00000
    219     -16.9318      2.00000
    220     -16.9279      2.00000
    221     -16.9252      2.00000
    222     -16.9206      2.00000
    223     -16.9149      2.00000
    224     -16.9056      2.00000
    225     -16.9033      2.00000
    226     -16.8997      2.00000
    227     -16.8934      2.00000
    228     -16.8900      2.00000
    229     -16.8845      2.00000
    230     -16.8770      2.00000
    231     -16.8708      2.00000
    232     -16.8644      2.00000
    233     -16.8611      2.00000
    234     -16.8477      2.00000
    235     -16.8471      2.00000
    236     -16.8430      2.00000
    237     -16.8366      2.00000
    238     -16.8288      2.00000
    239     -16.8253      2.00000
    240     -16.8180      2.00000
    241     -16.8137      2.00000
    242     -16.8070      2.00000
    243     -16.7939      2.00000
    244     -16.7839      2.00000
    245     -16.7716      2.00000
    246     -16.7667      2.00000
    247     -16.7614      2.00000
    248     -16.7508      2.00000
    249     -16.7440      2.00000
    250     -16.7339      2.00000
    251     -16.7160      2.00000
    252     -16.7119      2.00000
    253     -16.7021      2.00000
    254     -16.6584      2.00000
    255     -16.6501      2.00000
    256     -16.6388      2.00000
    257       4.0568      2.00000
    258       4.4491      2.00000
    259       5.2192      2.00000
    260       5.2396      2.00000
    261       5.5011      2.00000
    262       5.5030      2.00000
    263       5.5345      2.00000
    264       5.5476      2.00000
    265       5.7473      2.00000
    266       5.7576      2.00000
    267       6.1261      2.00000
    268       6.1885      2.00000
    269       6.2145      2.00000
    270       6.2245      2.00000
    271       6.2337      2.00000
    272       6.2484      2.00000
    273       6.2607      2.00000
    274       6.2806      2.00000
    275       6.2975      2.00000
    276       6.3044      2.00000
    277       6.3493      2.00000
    278       6.3647      2.00000
    279       6.3802      2.00000
    280       6.3873      2.00000
    281       6.4104      2.00000
    282       6.4206      2.00000
    283       6.6846      2.00000
    284       6.6996      2.00000
    285       6.7276      2.00000
    286       6.7593      2.00000
    287       6.7743      2.00000
    288       6.7811      2.00000
    289       6.9550      2.00000
    290       7.0087      2.00000
    291       7.0311      2.00000
    292       7.0674      2.00000
    293       7.1012      2.00000
    294       7.1122      2.00000
    295       7.1334      2.00000
    296       7.1588      2.00000
    297       7.1642      2.00000
    298       7.1864      2.00000
    299       7.1908      2.00000
    300       7.2124      2.00000
    301       7.2322      2.00000
    302       7.2526      2.00000
    303       7.2667      2.00000
    304       7.2765      2.00000
    305       7.2999      2.00000
    306       7.3075      2.00000
    307       7.3253      2.00000
    308       7.3593      2.00000
    309       7.3695      2.00000
    310       7.4089      2.00000
    311       7.4361      2.00000
    312       7.4671      2.00000
    313       7.4845      2.00000
    314       7.5268      2.00000
    315       7.5747      2.00000
    316       7.5856      2.00000
    317       7.6270      2.00000
    318       7.6472      2.00000
    319       7.6719      2.00000
    320       7.7093      2.00000
    321       7.7355      2.00000
    322       7.7561      2.00000
    323       7.7801      2.00000
    324       7.8002      2.00000
    325       7.8085      2.00000
    326       7.8341      2.00000
    327       7.8473      2.00000
    328       7.8706      2.00000
    329       7.8905      2.00000
    330       7.9063      2.00000
    331       7.9372      2.00000
    332       7.9470      2.00000
    333       7.9637      2.00000
    334       7.9826      2.00000
    335       8.0007      2.00000
    336       8.0046      2.00000
    337       8.0185      2.00000
    338       8.0355      2.00000
    339       8.0601      2.00000
    340       8.0926      2.00000
    341       8.1124      2.00000
    342       8.1373      2.00000
    343       8.1532      2.00000
    344       8.1632      2.00000
    345       8.1723      2.00000
    346       8.1994      2.00000
    347       8.2148      2.00000
    348       8.2233      2.00000
    349       8.2430      2.00000
    350       8.2645      2.00000
    351       8.2928      2.00000
    352       8.3114      2.00000
    353       8.3251      2.00000
    354       8.3483      2.00000
    355       8.3666      2.00000
    356       8.3925      2.00000
    357       8.4072      2.00000
    358       8.4446      2.00000
    359       8.4651      2.00000
    360       8.4823      2.00000
    361       8.5168      2.00000
    362       8.5460      2.00000
    363       8.6034      2.00000
    364       8.6318      2.00000
    365       8.6458      2.00000
    366       8.6661      2.00000
    367       8.6896      2.00000
    368       8.7253      2.00000
    369       8.7448      2.00000
    370       8.7693      2.00000
    371       8.7847      2.00000
    372       8.8202      2.00000
    373       8.8630      2.00000
    374       8.8858      2.00000
    375       8.9226      2.00000
    376       8.9611      2.00000
    377       9.0039      2.00000
    378       9.0312      2.00000
    379       9.0596      2.00000
    380       9.0771      2.00000
    381       9.1144      1.99997
    382       9.1599      1.99636
    383       9.1984      1.93118
    384       9.2255      1.70680
    385       9.2670      0.90221
    386       9.2908      0.42698
    387       9.2939      0.37727
    388       9.3148      0.14024
    389       9.3346      0.04210
    390       9.3769      0.00124
    391       9.3978      0.00013
    392       9.4247      0.00000
    393       9.4396      0.00000
    394       9.4697      0.00000
    395       9.4879      0.00000
    396       9.5165      0.00000
    397       9.5325      0.00000
    398       9.5433      0.00000
    399       9.5774      0.00000
    400       9.5912      0.00000
    401       9.6199      0.00000
    402       9.6389      0.00000
    403       9.6626      0.00000
    404       9.6827      0.00000
    405       9.7016      0.00000
    406       9.7341      0.00000
    407       9.7532      0.00000
    408       9.7900      0.00000
    409       9.7934      0.00000
    410       9.8265      0.00000
    411       9.8356      0.00000
    412       9.8734      0.00000
    413       9.8888      0.00000
    414       9.9162      0.00000
    415       9.9265      0.00000
    416       9.9535      0.00000
    417       9.9681      0.00000
    418       9.9876      0.00000
    419      10.0022      0.00000
    420      10.0325      0.00000
    421      10.0573      0.00000
    422      10.0688      0.00000
    423      10.0815      0.00000
    424      10.1018      0.00000
    425      10.1245      0.00000
    426      10.1602      0.00000
    427      10.1744      0.00000
    428      10.1910      0.00000
    429      10.2170      0.00000
    430      10.2325      0.00000
    431      10.2501      0.00000
    432      10.2756      0.00000
    433      10.2847      0.00000
    434      10.3188      0.00000
    435      10.3365      0.00000
    436      10.3511      0.00000
    437      10.3686      0.00000
    438      10.3944      0.00000
    439      10.4105      0.00000
    440      10.4338      0.00000
    441      10.4407      0.00000
    442      10.4592      0.00000
    443      10.4955      0.00000
    444      10.5144      0.00000
    445      10.5452      0.00000
    446      10.5669      0.00000
    447      10.5798      0.00000
    448      10.6181      0.00000
    449      10.6322      0.00000
    450      10.6578      0.00000
    451      10.6767      0.00000
    452      10.7077      0.00000
    453      10.7320      0.00000
    454      10.7607      0.00000
    455      10.7641      0.00000
    456      10.7895      0.00000
    457      10.8091      0.00000
    458      10.8269      0.00000
    459      10.8526      0.00000
    460      10.8823      0.00000
    461      10.8875      0.00000
    462      10.9228      0.00000
    463      10.9548      0.00000
    464      10.9853      0.00000

 k-point    28 :       0.2500    0.0000    0.4000
  band No.  band energies     occupation 
      1     -45.5192      2.00000
      2     -39.4662      2.00000
      3     -39.4257      2.00000
      4     -39.4096      2.00000
      5     -39.3981      2.00000
      6     -39.3952      2.00000
      7     -39.3867      2.00000
      8     -39.3779      2.00000
      9     -39.3616      2.00000
     10     -39.3577      2.00000
     11     -39.3456      2.00000
     12     -39.3407      2.00000
     13     -39.3334      2.00000
     14     -39.3263      2.00000
     15     -39.3201      2.00000
     16     -39.3111      2.00000
     17     -39.3009      2.00000
     18     -39.2959      2.00000
     19     -39.2908      2.00000
     20     -39.2889      2.00000
     21     -39.2834      2.00000
     22     -39.2724      2.00000
     23     -39.2643      2.00000
     24     -39.2604      2.00000
     25     -39.2510      2.00000
     26     -39.2418      2.00000
     27     -39.2393      2.00000
     28     -39.2369      2.00000
     29     -39.2330      2.00000
     30     -39.2279      2.00000
     31     -39.2243      2.00000
     32     -39.2171      2.00000
     33     -39.2136      2.00000
     34     -39.2050      2.00000
     35     -39.1982      2.00000
     36     -39.1889      2.00000
     37     -39.1795      2.00000
     38     -39.1730      2.00000
     39     -39.1638      2.00000
     40     -39.1553      2.00000
     41     -39.1518      2.00000
     42     -39.1478      2.00000
     43     -39.1444      2.00000
     44     -39.1354      2.00000
     45     -39.1276      2.00000
     46     -39.1235      2.00000
     47     -39.1135      2.00000
     48     -39.1077      2.00000
     49     -39.1045      2.00000
     50     -39.1008      2.00000
     51     -39.0971      2.00000
     52     -39.0934      2.00000
     53     -39.0828      2.00000
     54     -39.0712      2.00000
     55     -39.0641      2.00000
     56     -39.0609      2.00000
     57     -39.0315      2.00000
     58     -39.0256      2.00000
     59     -39.0214      2.00000
     60     -39.0198      2.00000
     61     -39.0158      2.00000
     62     -38.9513      2.00000
     63     -38.9136      2.00000
     64     -38.9133      2.00000
     65     -21.6081      2.00000
     66     -21.5850      2.00000
     67     -21.5569      2.00000
     68     -18.0343      2.00000
     69     -17.9958      2.00000
     70     -17.9810      2.00000
     71     -17.9692      2.00000
     72     -17.9609      2.00000
     73     -17.9472      2.00000
     74     -17.9383      2.00000
     75     -17.9250      2.00000
     76     -17.9161      2.00000
     77     -17.9050      2.00000
     78     -17.9005      2.00000
     79     -17.8815      2.00000
     80     -17.8774      2.00000
     81     -17.8694      2.00000
     82     -17.8581      2.00000
     83     -17.8494      2.00000
     84     -17.8442      2.00000
     85     -17.8334      2.00000
     86     -17.8283      2.00000
     87     -17.8187      2.00000
     88     -17.8122      2.00000
     89     -17.8052      2.00000
     90     -17.7996      2.00000
     91     -17.7893      2.00000
     92     -17.7875      2.00000
     93     -17.7801      2.00000
     94     -17.7719      2.00000
     95     -17.7651      2.00000
     96     -17.7618      2.00000
     97     -17.7514      2.00000
     98     -17.7485      2.00000
     99     -17.7402      2.00000
    100     -17.7344      2.00000
    101     -17.7246      2.00000
    102     -17.7198      2.00000
    103     -17.7152      2.00000
    104     -17.7085      2.00000
    105     -17.7015      2.00000
    106     -17.6976      2.00000
    107     -17.6858      2.00000
    108     -17.6761      2.00000
    109     -17.6673      2.00000
    110     -17.6589      2.00000
    111     -17.6543      2.00000
    112     -17.6402      2.00000
    113     -17.6326      2.00000
    114     -17.6284      2.00000
    115     -17.6204      2.00000
    116     -17.6127      2.00000
    117     -17.5977      2.00000
    118     -17.5920      2.00000
    119     -17.5815      2.00000
    120     -17.5618      2.00000
    121     -17.5559      2.00000
    122     -17.5416      2.00000
    123     -17.5361      2.00000
    124     -17.5298      2.00000
    125     -17.5167      2.00000
    126     -17.5130      2.00000
    127     -17.5013      2.00000
    128     -17.4920      2.00000
    129     -17.4885      2.00000
    130     -17.4775      2.00000
    131     -17.4666      2.00000
    132     -17.4601      2.00000
    133     -17.4572      2.00000
    134     -17.4453      2.00000
    135     -17.4368      2.00000
    136     -17.4237      2.00000
    137     -17.4186      2.00000
    138     -17.4175      2.00000
    139     -17.4061      2.00000
    140     -17.3964      2.00000
    141     -17.3921      2.00000
    142     -17.3878      2.00000
    143     -17.3823      2.00000
    144     -17.3729      2.00000
    145     -17.3667      2.00000
    146     -17.3581      2.00000
    147     -17.3502      2.00000
    148     -17.3398      2.00000
    149     -17.3354      2.00000
    150     -17.3280      2.00000
    151     -17.3223      2.00000
    152     -17.3156      2.00000
    153     -17.3092      2.00000
    154     -17.3034      2.00000
    155     -17.2952      2.00000
    156     -17.2862      2.00000
    157     -17.2801      2.00000
    158     -17.2717      2.00000
    159     -17.2646      2.00000
    160     -17.2636      2.00000
    161     -17.2569      2.00000
    162     -17.2493      2.00000
    163     -17.2383      2.00000
    164     -17.2356      2.00000
    165     -17.2245      2.00000
    166     -17.2208      2.00000
    167     -17.2138      2.00000
    168     -17.2058      2.00000
    169     -17.2020      2.00000
    170     -17.1992      2.00000
    171     -17.1886      2.00000
    172     -17.1811      2.00000
    173     -17.1750      2.00000
    174     -17.1700      2.00000
    175     -17.1659      2.00000
    176     -17.1582      2.00000
    177     -17.1543      2.00000
    178     -17.1507      2.00000
    179     -17.1438      2.00000
    180     -17.1354      2.00000
    181     -17.1321      2.00000
    182     -17.1287      2.00000
    183     -17.1235      2.00000
    184     -17.1178      2.00000
    185     -17.1149      2.00000
    186     -17.1016      2.00000
    187     -17.1001      2.00000
    188     -17.0948      2.00000
    189     -17.0923      2.00000
    190     -17.0873      2.00000
    191     -17.0810      2.00000
    192     -17.0761      2.00000
    193     -17.0698      2.00000
    194     -17.0622      2.00000
    195     -17.0583      2.00000
    196     -17.0533      2.00000
    197     -17.0462      2.00000
    198     -17.0367      2.00000
    199     -17.0320      2.00000
    200     -17.0285      2.00000
    201     -17.0245      2.00000
    202     -17.0214      2.00000
    203     -17.0142      2.00000
    204     -17.0111      2.00000
    205     -17.0041      2.00000
    206     -16.9970      2.00000
    207     -16.9947      2.00000
    208     -16.9861      2.00000
    209     -16.9813      2.00000
    210     -16.9787      2.00000
    211     -16.9730      2.00000
    212     -16.9697      2.00000
    213     -16.9643      2.00000
    214     -16.9574      2.00000
    215     -16.9535      2.00000
    216     -16.9468      2.00000
    217     -16.9395      2.00000
    218     -16.9367      2.00000
    219     -16.9336      2.00000
    220     -16.9296      2.00000
    221     -16.9229      2.00000
    222     -16.9196      2.00000
    223     -16.9142      2.00000
    224     -16.9077      2.00000
    225     -16.9017      2.00000
    226     -16.8988      2.00000
    227     -16.8961      2.00000
    228     -16.8921      2.00000
    229     -16.8849      2.00000
    230     -16.8769      2.00000
    231     -16.8699      2.00000
    232     -16.8660      2.00000
    233     -16.8609      2.00000
    234     -16.8482      2.00000
    235     -16.8477      2.00000
    236     -16.8432      2.00000
    237     -16.8364      2.00000
    238     -16.8319      2.00000
    239     -16.8247      2.00000
    240     -16.8169      2.00000
    241     -16.8132      2.00000
    242     -16.8079      2.00000
    243     -16.7973      2.00000
    244     -16.7838      2.00000
    245     -16.7764      2.00000
    246     -16.7679      2.00000
    247     -16.7628      2.00000
    248     -16.7502      2.00000
    249     -16.7442      2.00000
    250     -16.7336      2.00000
    251     -16.7167      2.00000
    252     -16.7113      2.00000
    253     -16.7010      2.00000
    254     -16.6592      2.00000
    255     -16.6498      2.00000
    256     -16.6415      2.00000
    257       4.1397      2.00000
    258       4.5281      2.00000
    259       4.7558      2.00000
    260       5.1079      2.00000
    261       5.5691      2.00000
    262       5.5764      2.00000
    263       5.7622      2.00000
    264       5.8107      2.00000
    265       5.8188      2.00000
    266       5.9935      2.00000
    267       6.0276      2.00000
    268       6.0382      2.00000
    269       6.1839      2.00000
    270       6.2023      2.00000
    271       6.2247      2.00000
    272       6.2411      2.00000
    273       6.2590      2.00000
    274       6.2904      2.00000
    275       6.3095      2.00000
    276       6.3265      2.00000
    277       6.3613      2.00000
    278       6.3864      2.00000
    279       6.3967      2.00000
    280       6.4086      2.00000
    281       6.4312      2.00000
    282       6.4429      2.00000
    283       6.6921      2.00000
    284       6.7233      2.00000
    285       6.7543      2.00000
    286       6.7662      2.00000
    287       6.7770      2.00000
    288       6.8021      2.00000
    289       6.8222      2.00000
    290       6.8400      2.00000
    291       6.8526      2.00000
    292       6.8772      2.00000
    293       6.9027      2.00000
    294       6.9305      2.00000
    295       7.0665      2.00000
    296       7.0952      2.00000
    297       7.1290      2.00000
    298       7.1548      2.00000
    299       7.1979      2.00000
    300       7.2118      2.00000
    301       7.2466      2.00000
    302       7.2845      2.00000
    303       7.2952      2.00000
    304       7.3054      2.00000
    305       7.3414      2.00000
    306       7.3578      2.00000
    307       7.4217      2.00000
    308       7.4388      2.00000
    309       7.4486      2.00000
    310       7.4742      2.00000
    311       7.4914      2.00000
    312       7.5055      2.00000
    313       7.5355      2.00000
    314       7.5594      2.00000
    315       7.5970      2.00000
    316       7.6256      2.00000
    317       7.6498      2.00000
    318       7.6712      2.00000
    319       7.6884      2.00000
    320       7.7222      2.00000
    321       7.7457      2.00000
    322       7.7538      2.00000
    323       7.7800      2.00000
    324       7.7945      2.00000
    325       7.8265      2.00000
    326       7.8381      2.00000
    327       7.8459      2.00000
    328       7.8602      2.00000
    329       7.8895      2.00000
    330       7.9006      2.00000
    331       7.9247      2.00000
    332       7.9463      2.00000
    333       7.9567      2.00000
    334       7.9890      2.00000
    335       7.9954      2.00000
    336       8.0109      2.00000
    337       8.0300      2.00000
    338       8.0484      2.00000
    339       8.0678      2.00000
    340       8.0858      2.00000
    341       8.1084      2.00000
    342       8.1236      2.00000
    343       8.1424      2.00000
    344       8.1640      2.00000
    345       8.1824      2.00000
    346       8.2021      2.00000
    347       8.2141      2.00000
    348       8.2245      2.00000
    349       8.2415      2.00000
    350       8.2613      2.00000
    351       8.2816      2.00000
    352       8.3059      2.00000
    353       8.3176      2.00000
    354       8.3647      2.00000
    355       8.3902      2.00000
    356       8.4104      2.00000
    357       8.4239      2.00000
    358       8.4412      2.00000
    359       8.4709      2.00000
    360       8.4801      2.00000
    361       8.5053      2.00000
    362       8.5186      2.00000
    363       8.5612      2.00000
    364       8.5900      2.00000
    365       8.6017      2.00000
    366       8.6406      2.00000
    367       8.6618      2.00000
    368       8.6952      2.00000
    369       8.7236      2.00000
    370       8.7382      2.00000
    371       8.7729      2.00000
    372       8.7950      2.00000
    373       8.8276      2.00000
    374       8.8669      2.00000
    375       8.8850      2.00000
    376       8.9342      2.00000
    377       8.9802      2.00000
    378       9.0241      2.00000
    379       9.0474      2.00000
    380       9.0865      2.00000
    381       9.1484      1.99878
    382       9.1849      1.97218
    383       9.2140      1.83197
    384       9.2340      1.58269
    385       9.2678      0.88491
    386       9.2922      0.40337
    387       9.3066      0.21385
    388       9.3324      0.04871
    389       9.3535      0.01020
    390       9.3739      0.00166
    391       9.4122      0.00002
    392       9.4204      0.00001
    393       9.4610      0.00000
    394       9.4827      0.00000
    395       9.5060      0.00000
    396       9.5153      0.00000
    397       9.5364      0.00000
    398       9.5506      0.00000
    399       9.5791      0.00000
    400       9.6006      0.00000
    401       9.6347      0.00000
    402       9.6693      0.00000
    403       9.6895      0.00000
    404       9.7079      0.00000
    405       9.7211      0.00000
    406       9.7588      0.00000
    407       9.7781      0.00000
    408       9.7988      0.00000
    409       9.8157      0.00000
    410       9.8367      0.00000
    411       9.8485      0.00000
    412       9.8702      0.00000
    413       9.8943      0.00000
    414       9.9060      0.00000
    415       9.9300      0.00000
    416       9.9589      0.00000
    417       9.9752      0.00000
    418      10.0134      0.00000
    419      10.0214      0.00000
    420      10.0437      0.00000
    421      10.0510      0.00000
    422      10.0839      0.00000
    423      10.0883      0.00000
    424      10.1080      0.00000
    425      10.1299      0.00000
    426      10.1444      0.00000
    427      10.1698      0.00000
    428      10.1944      0.00000
    429      10.2008      0.00000
    430      10.2347      0.00000
    431      10.2523      0.00000
    432      10.2718      0.00000
    433      10.2977      0.00000
    434      10.3179      0.00000
    435      10.3224      0.00000
    436      10.3410      0.00000
    437      10.3628      0.00000
    438      10.3870      0.00000
    439      10.3993      0.00000
    440      10.4205      0.00000
    441      10.4361      0.00000
    442      10.4716      0.00000
    443      10.4981      0.00000
    444      10.5320      0.00000
    445      10.5397      0.00000
    446      10.5514      0.00000
    447      10.5891      0.00000
    448      10.6079      0.00000
    449      10.6374      0.00000
    450      10.6631      0.00000
    451      10.6868      0.00000
    452      10.7073      0.00000
    453      10.7348      0.00000
    454      10.7538      0.00000
    455      10.7726      0.00000
    456      10.7787      0.00000
    457      10.8241      0.00000
    458      10.8483      0.00000
    459      10.8563      0.00000
    460      10.8811      0.00000
    461      10.9140      0.00000
    462      10.9336      0.00000
    463      10.9502      0.00000
    464      10.9878      0.00000

 k-point    29 :      -0.2500   -0.0000    0.4000
  band No.  band energies     occupation 
      1     -45.5192      2.00000
      2     -39.4661      2.00000
      3     -39.4259      2.00000
      4     -39.4094      2.00000
      5     -39.3983      2.00000
      6     -39.3947      2.00000
      7     -39.3869      2.00000
      8     -39.3780      2.00000
      9     -39.3618      2.00000
     10     -39.3580      2.00000
     11     -39.3461      2.00000
     12     -39.3404      2.00000
     13     -39.3319      2.00000
     14     -39.3264      2.00000
     15     -39.3204      2.00000
     16     -39.3120      2.00000
     17     -39.2992      2.00000
     18     -39.2974      2.00000
     19     -39.2909      2.00000
     20     -39.2890      2.00000
     21     -39.2828      2.00000
     22     -39.2717      2.00000
     23     -39.2647      2.00000
     24     -39.2610      2.00000
     25     -39.2510      2.00000
     26     -39.2413      2.00000
     27     -39.2389      2.00000
     28     -39.2372      2.00000
     29     -39.2340      2.00000
     30     -39.2276      2.00000
     31     -39.2251      2.00000
     32     -39.2169      2.00000
     33     -39.2121      2.00000
     34     -39.2046      2.00000
     35     -39.1988      2.00000
     36     -39.1900      2.00000
     37     -39.1781      2.00000
     38     -39.1739      2.00000
     39     -39.1636      2.00000
     40     -39.1549      2.00000
     41     -39.1518      2.00000
     42     -39.1487      2.00000
     43     -39.1444      2.00000
     44     -39.1348      2.00000
     45     -39.1280      2.00000
     46     -39.1234      2.00000
     47     -39.1137      2.00000
     48     -39.1072      2.00000
     49     -39.1047      2.00000
     50     -39.1003      2.00000
     51     -39.0978      2.00000
     52     -39.0932      2.00000
     53     -39.0828      2.00000
     54     -39.0711      2.00000
     55     -39.0641      2.00000
     56     -39.0609      2.00000
     57     -39.0315      2.00000
     58     -39.0256      2.00000
     59     -39.0214      2.00000
     60     -39.0197      2.00000
     61     -39.0158      2.00000
     62     -38.9513      2.00000
     63     -38.9136      2.00000
     64     -38.9133      2.00000
     65     -21.6081      2.00000
     66     -21.5850      2.00000
     67     -21.5569      2.00000
     68     -18.0329      2.00000
     69     -17.9945      2.00000
     70     -17.9878      2.00000
     71     -17.9698      2.00000
     72     -17.9584      2.00000
     73     -17.9451      2.00000
     74     -17.9361      2.00000
     75     -17.9281      2.00000
     76     -17.9105      2.00000
     77     -17.9049      2.00000
     78     -17.8993      2.00000
     79     -17.8868      2.00000
     80     -17.8792      2.00000
     81     -17.8673      2.00000
     82     -17.8597      2.00000
     83     -17.8496      2.00000
     84     -17.8421      2.00000
     85     -17.8387      2.00000
     86     -17.8281      2.00000
     87     -17.8174      2.00000
     88     -17.8128      2.00000
     89     -17.8045      2.00000
     90     -17.8017      2.00000
     91     -17.7944      2.00000
     92     -17.7826      2.00000
     93     -17.7770      2.00000
     94     -17.7700      2.00000
     95     -17.7675      2.00000
     96     -17.7571      2.00000
     97     -17.7507      2.00000
     98     -17.7457      2.00000
     99     -17.7419      2.00000
    100     -17.7316      2.00000
    101     -17.7300      2.00000
    102     -17.7239      2.00000
    103     -17.7197      2.00000
    104     -17.7053      2.00000
    105     -17.7023      2.00000
    106     -17.6915      2.00000
    107     -17.6824      2.00000
    108     -17.6715      2.00000
    109     -17.6667      2.00000
    110     -17.6579      2.00000
    111     -17.6542      2.00000
    112     -17.6438      2.00000
    113     -17.6368      2.00000
    114     -17.6296      2.00000
    115     -17.6270      2.00000
    116     -17.6083      2.00000
    117     -17.6073      2.00000
    118     -17.5891      2.00000
    119     -17.5806      2.00000
    120     -17.5643      2.00000
    121     -17.5503      2.00000
    122     -17.5450      2.00000
    123     -17.5405      2.00000
    124     -17.5259      2.00000
    125     -17.5137      2.00000
    126     -17.5047      2.00000
    127     -17.4992      2.00000
    128     -17.4922      2.00000
    129     -17.4845      2.00000
    130     -17.4780      2.00000
    131     -17.4713      2.00000
    132     -17.4571      2.00000
    133     -17.4528      2.00000
    134     -17.4447      2.00000
    135     -17.4347      2.00000
    136     -17.4309      2.00000
    137     -17.4222      2.00000
    138     -17.4145      2.00000
    139     -17.4088      2.00000
    140     -17.4010      2.00000
    141     -17.3927      2.00000
    142     -17.3869      2.00000
    143     -17.3823      2.00000
    144     -17.3771      2.00000
    145     -17.3727      2.00000
    146     -17.3607      2.00000
    147     -17.3448      2.00000
    148     -17.3391      2.00000
    149     -17.3324      2.00000
    150     -17.3281      2.00000
    151     -17.3235      2.00000
    152     -17.3162      2.00000
    153     -17.3072      2.00000
    154     -17.3028      2.00000
    155     -17.2932      2.00000
    156     -17.2879      2.00000
    157     -17.2815      2.00000
    158     -17.2760      2.00000
    159     -17.2671      2.00000
    160     -17.2590      2.00000
    161     -17.2540      2.00000
    162     -17.2482      2.00000
    163     -17.2392      2.00000
    164     -17.2335      2.00000
    165     -17.2258      2.00000
    166     -17.2219      2.00000
    167     -17.2125      2.00000
    168     -17.2068      2.00000
    169     -17.2015      2.00000
    170     -17.1939      2.00000
    171     -17.1858      2.00000
    172     -17.1830      2.00000
    173     -17.1781      2.00000
    174     -17.1694      2.00000
    175     -17.1630      2.00000
    176     -17.1580      2.00000
    177     -17.1534      2.00000
    178     -17.1465      2.00000
    179     -17.1445      2.00000
    180     -17.1399      2.00000
    181     -17.1353      2.00000
    182     -17.1277      2.00000
    183     -17.1227      2.00000
    184     -17.1160      2.00000
    185     -17.1139      2.00000
    186     -17.1057      2.00000
    187     -17.1026      2.00000
    188     -17.0949      2.00000
    189     -17.0908      2.00000
    190     -17.0865      2.00000
    191     -17.0833      2.00000
    192     -17.0738      2.00000
    193     -17.0688      2.00000
    194     -17.0627      2.00000
    195     -17.0588      2.00000
    196     -17.0511      2.00000
    197     -17.0470      2.00000
    198     -17.0406      2.00000
    199     -17.0346      2.00000
    200     -17.0275      2.00000
    201     -17.0255      2.00000
    202     -17.0202      2.00000
    203     -17.0180      2.00000
    204     -17.0086      2.00000
    205     -17.0049      2.00000
    206     -16.9949      2.00000
    207     -16.9915      2.00000
    208     -16.9887      2.00000
    209     -16.9819      2.00000
    210     -16.9787      2.00000
    211     -16.9719      2.00000
    212     -16.9673      2.00000
    213     -16.9626      2.00000
    214     -16.9575      2.00000
    215     -16.9542      2.00000
    216     -16.9486      2.00000
    217     -16.9376      2.00000
    218     -16.9366      2.00000
    219     -16.9329      2.00000
    220     -16.9284      2.00000
    221     -16.9234      2.00000
    222     -16.9176      2.00000
    223     -16.9163      2.00000
    224     -16.9114      2.00000
    225     -16.9046      2.00000
    226     -16.9021      2.00000
    227     -16.8925      2.00000
    228     -16.8894      2.00000
    229     -16.8821      2.00000
    230     -16.8764      2.00000
    231     -16.8711      2.00000
    232     -16.8684      2.00000
    233     -16.8629      2.00000
    234     -16.8495      2.00000
    235     -16.8467      2.00000
    236     -16.8436      2.00000
    237     -16.8375      2.00000
    238     -16.8289      2.00000
    239     -16.8222      2.00000
    240     -16.8188      2.00000
    241     -16.8138      2.00000
    242     -16.8068      2.00000
    243     -16.7983      2.00000
    244     -16.7851      2.00000
    245     -16.7736      2.00000
    246     -16.7672      2.00000
    247     -16.7624      2.00000
    248     -16.7518      2.00000
    249     -16.7434      2.00000
    250     -16.7324      2.00000
    251     -16.7190      2.00000
    252     -16.7115      2.00000
    253     -16.7006      2.00000
    254     -16.6590      2.00000
    255     -16.6502      2.00000
    256     -16.6415      2.00000
    257       4.1397      2.00000
    258       4.5279      2.00000
    259       4.7570      2.00000
    260       5.1068      2.00000
    261       5.5683      2.00000
    262       5.5773      2.00000
    263       5.7591      2.00000
    264       5.8087      2.00000
    265       5.8198      2.00000
    266       5.9953      2.00000
    267       6.0304      2.00000
    268       6.0403      2.00000
    269       6.1876      2.00000
    270       6.2084      2.00000
    271       6.2140      2.00000
    272       6.2403      2.00000
    273       6.2601      2.00000
    274       6.2936      2.00000
    275       6.3103      2.00000
    276       6.3295      2.00000
    277       6.3613      2.00000
    278       6.3728      2.00000
    279       6.4003      2.00000
    280       6.4072      2.00000
    281       6.4217      2.00000
    282       6.4570      2.00000
    283       6.7056      2.00000
    284       6.7209      2.00000
    285       6.7391      2.00000
    286       6.7497      2.00000
    287       6.7881      2.00000
    288       6.8077      2.00000
    289       6.8243      2.00000
    290       6.8387      2.00000
    291       6.8493      2.00000
    292       6.8723      2.00000
    293       6.9109      2.00000
    294       6.9316      2.00000
    295       7.0441      2.00000
    296       7.0837      2.00000
    297       7.1253      2.00000
    298       7.1571      2.00000
    299       7.1991      2.00000
    300       7.2247      2.00000
    301       7.2562      2.00000
    302       7.2797      2.00000
    303       7.3073      2.00000
    304       7.3351      2.00000
    305       7.3511      2.00000
    306       7.3944      2.00000
    307       7.4189      2.00000
    308       7.4262      2.00000
    309       7.4534      2.00000
    310       7.4696      2.00000
    311       7.4921      2.00000
    312       7.5019      2.00000
    313       7.5216      2.00000
    314       7.5430      2.00000
    315       7.5661      2.00000
    316       7.6243      2.00000
    317       7.6518      2.00000
    318       7.6832      2.00000
    319       7.6950      2.00000
    320       7.7175      2.00000
    321       7.7371      2.00000
    322       7.7698      2.00000
    323       7.7904      2.00000
    324       7.7983      2.00000
    325       7.8178      2.00000
    326       7.8373      2.00000
    327       7.8488      2.00000
    328       7.8606      2.00000
    329       7.8831      2.00000
    330       7.9080      2.00000
    331       7.9178      2.00000
    332       7.9376      2.00000
    333       7.9457      2.00000
    334       7.9600      2.00000
    335       7.9911      2.00000
    336       8.0104      2.00000
    337       8.0255      2.00000
    338       8.0371      2.00000
    339       8.0668      2.00000
    340       8.0884      2.00000
    341       8.1055      2.00000
    342       8.1195      2.00000
    343       8.1455      2.00000
    344       8.1613      2.00000
    345       8.1830      2.00000
    346       8.2030      2.00000
    347       8.2271      2.00000
    348       8.2443      2.00000
    349       8.2608      2.00000
    350       8.2852      2.00000
    351       8.2927      2.00000
    352       8.3250      2.00000
    353       8.3417      2.00000
    354       8.3558      2.00000
    355       8.3696      2.00000
    356       8.3833      2.00000
    357       8.4054      2.00000
    358       8.4319      2.00000
    359       8.4598      2.00000
    360       8.4709      2.00000
    361       8.4920      2.00000
    362       8.5334      2.00000
    363       8.5784      2.00000
    364       8.5929      2.00000
    365       8.6057      2.00000
    366       8.6431      2.00000
    367       8.6505      2.00000
    368       8.6859      2.00000
    369       8.7060      2.00000
    370       8.7458      2.00000
    371       8.7734      2.00000
    372       8.8067      2.00000
    373       8.8460      2.00000
    374       8.8697      2.00000
    375       8.9231      2.00000
    376       8.9467      2.00000
    377       8.9678      2.00000
    378       9.0074      2.00000
    379       9.0358      2.00000
    380       9.1001      2.00000
    381       9.1377      1.99959
    382       9.1712      1.99037
    383       9.2091      1.87078
    384       9.2371      1.53166
    385       9.2651      0.94617
    386       9.2847      0.53339
    387       9.3027      0.25822
    388       9.3317      0.05092
    389       9.3557      0.00853
    390       9.3826      0.00069
    391       9.4237      0.00001
    392       9.4403      0.00000
    393       9.4680      0.00000
    394       9.4829      0.00000
    395       9.5135      0.00000
    396       9.5233      0.00000
    397       9.5415      0.00000
    398       9.5611      0.00000
    399       9.5917      0.00000
    400       9.6160      0.00000
    401       9.6375      0.00000
    402       9.6497      0.00000
    403       9.6824      0.00000
    404       9.6902      0.00000
    405       9.7156      0.00000
    406       9.7351      0.00000
    407       9.7531      0.00000
    408       9.7979      0.00000
    409       9.8149      0.00000
    410       9.8186      0.00000
    411       9.8458      0.00000
    412       9.8575      0.00000
    413       9.8893      0.00000
    414       9.9063      0.00000
    415       9.9331      0.00000
    416       9.9646      0.00000
    417       9.9727      0.00000
    418       9.9937      0.00000
    419      10.0153      0.00000
    420      10.0329      0.00000
    421      10.0482      0.00000
    422      10.0677      0.00000
    423      10.0999      0.00000
    424      10.1110      0.00000
    425      10.1307      0.00000
    426      10.1452      0.00000
    427      10.1846      0.00000
    428      10.1981      0.00000
    429      10.2114      0.00000
    430      10.2285      0.00000
    431      10.2629      0.00000
    432      10.2707      0.00000
    433      10.3049      0.00000
    434      10.3173      0.00000
    435      10.3307      0.00000
    436      10.3516      0.00000
    437      10.3818      0.00000
    438      10.3850      0.00000
    439      10.4090      0.00000
    440      10.4275      0.00000
    441      10.4611      0.00000
    442      10.4733      0.00000
    443      10.5056      0.00000
    444      10.5196      0.00000
    445      10.5451      0.00000
    446      10.5703      0.00000
    447      10.5897      0.00000
    448      10.6098      0.00000
    449      10.6260      0.00000
    450      10.6489      0.00000
    451      10.6769      0.00000
    452      10.7034      0.00000
    453      10.7326      0.00000
    454      10.7450      0.00000
    455      10.7640      0.00000
    456      10.7952      0.00000
    457      10.8117      0.00000
    458      10.8306      0.00000
    459      10.8602      0.00000
    460      10.8844      0.00000
    461      10.8918      0.00000
    462      10.9193      0.00000
    463      10.9650      0.00000
    464      10.9785      0.00000

 k-point    30 :       0.5000    0.0000    0.4000
  band No.  band energies     occupation 
      1     -45.5192      2.00000
      2     -39.4660      2.00000
      3     -39.4250      2.00000
      4     -39.4102      2.00000
      5     -39.3988      2.00000
      6     -39.3954      2.00000
      7     -39.3865      2.00000
      8     -39.3775      2.00000
      9     -39.3624      2.00000
     10     -39.3574      2.00000
     11     -39.3467      2.00000
     12     -39.3401      2.00000
     13     -39.3303      2.00000
     14     -39.3279      2.00000
     15     -39.3214      2.00000
     16     -39.3107      2.00000
     17     -39.2999      2.00000
     18     -39.2964      2.00000
     19     -39.2908      2.00000
     20     -39.2887      2.00000
     21     -39.2836      2.00000
     22     -39.2720      2.00000
     23     -39.2646      2.00000
     24     -39.2609      2.00000
     25     -39.2507      2.00000
     26     -39.2405      2.00000
     27     -39.2385      2.00000
     28     -39.2372      2.00000
     29     -39.2339      2.00000
     30     -39.2283      2.00000
     31     -39.2236      2.00000
     32     -39.2173      2.00000
     33     -39.2138      2.00000
     34     -39.2049      2.00000
     35     -39.1990      2.00000
     36     -39.1891      2.00000
     37     -39.1791      2.00000
     38     -39.1727      2.00000
     39     -39.1641      2.00000
     40     -39.1551      2.00000
     41     -39.1525      2.00000
     42     -39.1478      2.00000
     43     -39.1444      2.00000
     44     -39.1356      2.00000
     45     -39.1274      2.00000
     46     -39.1234      2.00000
     47     -39.1136      2.00000
     48     -39.1064      2.00000
     49     -39.1045      2.00000
     50     -39.1009      2.00000
     51     -39.0987      2.00000
     52     -39.0928      2.00000
     53     -39.0829      2.00000
     54     -39.0709      2.00000
     55     -39.0640      2.00000
     56     -39.0610      2.00000
     57     -39.0315      2.00000
     58     -39.0256      2.00000
     59     -39.0213      2.00000
     60     -39.0199      2.00000
     61     -39.0158      2.00000
     62     -38.9513      2.00000
     63     -38.9136      2.00000
     64     -38.9133      2.00000
     65     -21.6081      2.00000
     66     -21.5850      2.00000
     67     -21.5569      2.00000
     68     -18.0309      2.00000
     69     -17.9839      2.00000
     70     -17.9781      2.00000
     71     -17.9744      2.00000
     72     -17.9569      2.00000
     73     -17.9399      2.00000
     74     -17.9336      2.00000
     75     -17.9235      2.00000
     76     -17.9138      2.00000
     77     -17.9087      2.00000
     78     -17.8990      2.00000
     79     -17.8820      2.00000
     80     -17.8779      2.00000
     81     -17.8714      2.00000
     82     -17.8659      2.00000
     83     -17.8571      2.00000
     84     -17.8474      2.00000
     85     -17.8391      2.00000
     86     -17.8279      2.00000
     87     -17.8173      2.00000
     88     -17.8140      2.00000
     89     -17.8042      2.00000
     90     -17.7969      2.00000
     91     -17.7878      2.00000
     92     -17.7851      2.00000
     93     -17.7790      2.00000
     94     -17.7729      2.00000
     95     -17.7707      2.00000
     96     -17.7613      2.00000
     97     -17.7551      2.00000
     98     -17.7474      2.00000
     99     -17.7447      2.00000
    100     -17.7318      2.00000
    101     -17.7288      2.00000
    102     -17.7240      2.00000
    103     -17.7200      2.00000
    104     -17.7061      2.00000
    105     -17.6981      2.00000
    106     -17.6921      2.00000
    107     -17.6803      2.00000
    108     -17.6750      2.00000
    109     -17.6665      2.00000
    110     -17.6580      2.00000
    111     -17.6526      2.00000
    112     -17.6446      2.00000
    113     -17.6387      2.00000
    114     -17.6279      2.00000
    115     -17.6191      2.00000
    116     -17.6019      2.00000
    117     -17.5996      2.00000
    118     -17.5892      2.00000
    119     -17.5778      2.00000
    120     -17.5727      2.00000
    121     -17.5583      2.00000
    122     -17.5486      2.00000
    123     -17.5426      2.00000
    124     -17.5326      2.00000
    125     -17.5221      2.00000
    126     -17.5183      2.00000
    127     -17.5006      2.00000
    128     -17.4962      2.00000
    129     -17.4863      2.00000
    130     -17.4776      2.00000
    131     -17.4746      2.00000
    132     -17.4598      2.00000
    133     -17.4565      2.00000
    134     -17.4504      2.00000
    135     -17.4374      2.00000
    136     -17.4313      2.00000
    137     -17.4281      2.00000
    138     -17.4179      2.00000
    139     -17.4104      2.00000
    140     -17.3979      2.00000
    141     -17.3947      2.00000
    142     -17.3883      2.00000
    143     -17.3820      2.00000
    144     -17.3756      2.00000
    145     -17.3704      2.00000
    146     -17.3618      2.00000
    147     -17.3536      2.00000
    148     -17.3349      2.00000
    149     -17.3298      2.00000
    150     -17.3238      2.00000
    151     -17.3180      2.00000
    152     -17.3113      2.00000
    153     -17.3058      2.00000
    154     -17.3008      2.00000
    155     -17.2910      2.00000
    156     -17.2820      2.00000
    157     -17.2782      2.00000
    158     -17.2748      2.00000
    159     -17.2660      2.00000
    160     -17.2564      2.00000
    161     -17.2471      2.00000
    162     -17.2411      2.00000
    163     -17.2362      2.00000
    164     -17.2295      2.00000
    165     -17.2259      2.00000
    166     -17.2205      2.00000
    167     -17.2109      2.00000
    168     -17.2080      2.00000
    169     -17.1968      2.00000
    170     -17.1913      2.00000
    171     -17.1815      2.00000
    172     -17.1780      2.00000
    173     -17.1730      2.00000
    174     -17.1670      2.00000
    175     -17.1636      2.00000
    176     -17.1568      2.00000
    177     -17.1549      2.00000
    178     -17.1480      2.00000
    179     -17.1426      2.00000
    180     -17.1383      2.00000
    181     -17.1317      2.00000
    182     -17.1263      2.00000
    183     -17.1198      2.00000
    184     -17.1128      2.00000
    185     -17.1105      2.00000
    186     -17.1055      2.00000
    187     -17.0992      2.00000
    188     -17.0953      2.00000
    189     -17.0892      2.00000
    190     -17.0871      2.00000
    191     -17.0843      2.00000
    192     -17.0772      2.00000
    193     -17.0705      2.00000
    194     -17.0610      2.00000
    195     -17.0586      2.00000
    196     -17.0518      2.00000
    197     -17.0454      2.00000
    198     -17.0424      2.00000
    199     -17.0342      2.00000
    200     -17.0273      2.00000
    201     -17.0232      2.00000
    202     -17.0197      2.00000
    203     -17.0152      2.00000
    204     -17.0110      2.00000
    205     -17.0063      2.00000
    206     -16.9981      2.00000
    207     -16.9916      2.00000
    208     -16.9866      2.00000
    209     -16.9814      2.00000
    210     -16.9761      2.00000
    211     -16.9749      2.00000
    212     -16.9717      2.00000
    213     -16.9671      2.00000
    214     -16.9588      2.00000
    215     -16.9534      2.00000
    216     -16.9490      2.00000
    217     -16.9399      2.00000
    218     -16.9366      2.00000
    219     -16.9337      2.00000
    220     -16.9283      2.00000
    221     -16.9264      2.00000
    222     -16.9208      2.00000
    223     -16.9135      2.00000
    224     -16.9100      2.00000
    225     -16.9042      2.00000
    226     -16.8995      2.00000
    227     -16.8960      2.00000
    228     -16.8900      2.00000
    229     -16.8845      2.00000
    230     -16.8739      2.00000
    231     -16.8701      2.00000
    232     -16.8684      2.00000
    233     -16.8649      2.00000
    234     -16.8499      2.00000
    235     -16.8476      2.00000
    236     -16.8449      2.00000
    237     -16.8371      2.00000
    238     -16.8299      2.00000
    239     -16.8234      2.00000
    240     -16.8171      2.00000
    241     -16.8112      2.00000
    242     -16.8071      2.00000
    243     -16.8043      2.00000
    244     -16.7854      2.00000
    245     -16.7795      2.00000
    246     -16.7680      2.00000
    247     -16.7630      2.00000
    248     -16.7513      2.00000
    249     -16.7437      2.00000
    250     -16.7322      2.00000
    251     -16.7193      2.00000
    252     -16.7107      2.00000
    253     -16.6997      2.00000
    254     -16.6600      2.00000
    255     -16.6500      2.00000
    256     -16.6440      2.00000
    257       4.3729      2.00000
    258       4.3876      2.00000
    259       4.7509      2.00000
    260       4.7638      2.00000
    261       5.7279      2.00000
    262       5.7495      2.00000
    263       5.7825      2.00000
    264       5.8065      2.00000
    265       5.9602      2.00000
    266       5.9814      2.00000
    267       6.0074      2.00000
    268       6.0326      2.00000
    269       6.2491      2.00000
    270       6.2640      2.00000
    271       6.2841      2.00000
    272       6.3051      2.00000
    273       6.3279      2.00000
    274       6.3397      2.00000
    275       6.3613      2.00000
    276       6.3729      2.00000
    277       6.3810      2.00000
    278       6.3996      2.00000
    279       6.4206      2.00000
    280       6.4491      2.00000
    281       6.4595      2.00000
    282       6.4708      2.00000
    283       6.5054      2.00000
    284       6.5258      2.00000
    285       6.5499      2.00000
    286       6.5767      2.00000
    287       6.5954      2.00000
    288       6.6269      2.00000
    289       6.8097      2.00000
    290       6.8882      2.00000
    291       6.8989      2.00000
    292       6.9292      2.00000
    293       6.9510      2.00000
    294       6.9869      2.00000
    295       7.0144      2.00000
    296       7.0385      2.00000
    297       7.0614      2.00000
    298       7.0794      2.00000
    299       7.1084      2.00000
    300       7.1255      2.00000
    301       7.1769      2.00000
    302       7.2304      2.00000
    303       7.3109      2.00000
    304       7.3544      2.00000
    305       7.3676      2.00000
    306       7.4266      2.00000
    307       7.4552      2.00000
    308       7.4629      2.00000
    309       7.4812      2.00000
    310       7.5147      2.00000
    311       7.5389      2.00000
    312       7.5691      2.00000
    313       7.5962      2.00000
    314       7.6200      2.00000
    315       7.6437      2.00000
    316       7.6510      2.00000
    317       7.6725      2.00000
    318       7.6836      2.00000
    319       7.7075      2.00000
    320       7.7307      2.00000
    321       7.7443      2.00000
    322       7.7774      2.00000
    323       7.7911      2.00000
    324       7.8119      2.00000
    325       7.8194      2.00000
    326       7.8345      2.00000
    327       7.8572      2.00000
    328       7.8756      2.00000
    329       7.9037      2.00000
    330       7.9075      2.00000
    331       7.9098      2.00000
    332       7.9312      2.00000
    333       7.9512      2.00000
    334       7.9691      2.00000
    335       7.9789      2.00000
    336       7.9960      2.00000
    337       8.0198      2.00000
    338       8.0376      2.00000
    339       8.0549      2.00000
    340       8.0839      2.00000
    341       8.0910      2.00000
    342       8.1247      2.00000
    343       8.1481      2.00000
    344       8.1607      2.00000
    345       8.1782      2.00000
    346       8.1944      2.00000
    347       8.2204      2.00000
    348       8.2377      2.00000
    349       8.2585      2.00000
    350       8.2766      2.00000
    351       8.2895      2.00000
    352       8.3006      2.00000
    353       8.3280      2.00000
    354       8.3494      2.00000
    355       8.3668      2.00000
    356       8.3809      2.00000
    357       8.3980      2.00000
    358       8.4148      2.00000
    359       8.4662      2.00000
    360       8.4788      2.00000
    361       8.4993      2.00000
    362       8.5243      2.00000
    363       8.5584      2.00000
    364       8.5760      2.00000
    365       8.5916      2.00000
    366       8.6141      2.00000
    367       8.6392      2.00000
    368       8.6673      2.00000
    369       8.6849      2.00000
    370       8.7319      2.00000
    371       8.7375      2.00000
    372       8.7986      2.00000
    373       8.8106      2.00000
    374       8.8487      2.00000
    375       8.9191      2.00000
    376       8.9443      2.00000
    377       8.9821      2.00000
    378       9.0335      2.00000
    379       9.0506      2.00000
    380       9.1245      1.99991
    381       9.1685      1.99229
    382       9.1945      1.94636
    383       9.2246      1.71886
    384       9.2535      1.20598
    385       9.2713      0.80777
    386       9.2916      0.41345
    387       9.3174      0.12217
    388       9.3492      0.01443
    389       9.3739      0.00166
    390       9.3908      0.00029
    391       9.4074      0.00004
    392       9.4342      0.00000
    393       9.4633      0.00000
    394       9.4771      0.00000
    395       9.5010      0.00000
    396       9.5105      0.00000
    397       9.5277      0.00000
    398       9.5570      0.00000
    399       9.5819      0.00000
    400       9.6023      0.00000
    401       9.6219      0.00000
    402       9.6382      0.00000
    403       9.6686      0.00000
    404       9.6916      0.00000
    405       9.7143      0.00000
    406       9.7310      0.00000
    407       9.7563      0.00000
    408       9.7814      0.00000
    409       9.7975      0.00000
    410       9.8122      0.00000
    411       9.8344      0.00000
    412       9.8740      0.00000
    413       9.9017      0.00000
    414       9.9251      0.00000
    415       9.9435      0.00000
    416       9.9577      0.00000
    417       9.9742      0.00000
    418      10.0108      0.00000
    419      10.0325      0.00000
    420      10.0473      0.00000
    421      10.0704      0.00000
    422      10.0995      0.00000
    423      10.1130      0.00000
    424      10.1338      0.00000
    425      10.1459      0.00000
    426      10.1631      0.00000
    427      10.1829      0.00000
    428      10.2018      0.00000
    429      10.2239      0.00000
    430      10.2702      0.00000
    431      10.2775      0.00000
    432      10.2940      0.00000
    433      10.3189      0.00000
    434      10.3291      0.00000
    435      10.3521      0.00000
    436      10.3595      0.00000
    437      10.3862      0.00000
    438      10.4173      0.00000
    439      10.4323      0.00000
    440      10.4448      0.00000
    441      10.4523      0.00000
    442      10.4809      0.00000
    443      10.5069      0.00000
    444      10.5376      0.00000
    445      10.5454      0.00000
    446      10.5824      0.00000
    447      10.6038      0.00000
    448      10.6146      0.00000
    449      10.6372      0.00000
    450      10.6566      0.00000
    451      10.6872      0.00000
    452      10.7110      0.00000
    453      10.7268      0.00000
    454      10.7421      0.00000
    455      10.7508      0.00000
    456      10.7752      0.00000
    457      10.8167      0.00000
    458      10.8273      0.00000
    459      10.8406      0.00000
    460      10.8734      0.00000
    461      10.8996      0.00000
    462      10.9463      0.00000
    463      10.9634      0.00000
    464      10.9863      0.00000

 k-point    31 :      -0.0000    0.2500    0.4000
  band No.  band energies     occupation 
      1     -45.5192      2.00000
      2     -39.4659      2.00000
      3     -39.4257      2.00000
      4     -39.4080      2.00000
      5     -39.3984      2.00000
      6     -39.3948      2.00000
      7     -39.3889      2.00000
      8     -39.3765      2.00000
      9     -39.3635      2.00000
     10     -39.3582      2.00000
     11     -39.3442      2.00000
     12     -39.3405      2.00000
     13     -39.3344      2.00000
     14     -39.3268      2.00000
     15     -39.3197      2.00000
     16     -39.3109      2.00000
     17     -39.3021      2.00000
     18     -39.2956      2.00000
     19     -39.2909      2.00000
     20     -39.2887      2.00000
     21     -39.2836      2.00000
     22     -39.2721      2.00000
     23     -39.2655      2.00000
     24     -39.2591      2.00000
     25     -39.2479      2.00000
     26     -39.2443      2.00000
     27     -39.2383      2.00000
     28     -39.2377      2.00000
     29     -39.2341      2.00000
     30     -39.2292      2.00000
     31     -39.2237      2.00000
     32     -39.2166      2.00000
     33     -39.2113      2.00000
     34     -39.2043      2.00000
     35     -39.1977      2.00000
     36     -39.1890      2.00000
     37     -39.1785      2.00000
     38     -39.1742      2.00000
     39     -39.1637      2.00000
     40     -39.1554      2.00000
     41     -39.1515      2.00000
     42     -39.1493      2.00000
     43     -39.1446      2.00000
     44     -39.1352      2.00000
     45     -39.1282      2.00000
     46     -39.1234      2.00000
     47     -39.1135      2.00000
     48     -39.1085      2.00000
     49     -39.1044      2.00000
     50     -39.1003      2.00000
     51     -39.0960      2.00000
     52     -39.0942      2.00000
     53     -39.0828      2.00000
     54     -39.0713      2.00000
     55     -39.0642      2.00000
     56     -39.0609      2.00000
     57     -39.0313      2.00000
     58     -39.0255      2.00000
     59     -39.0216      2.00000
     60     -39.0196      2.00000
     61     -39.0159      2.00000
     62     -38.9513      2.00000
     63     -38.9136      2.00000
     64     -38.9133      2.00000
     65     -21.6081      2.00000
     66     -21.5850      2.00000
     67     -21.5569      2.00000
     68     -18.0316      2.00000
     69     -17.9888      2.00000
     70     -17.9810      2.00000
     71     -17.9662      2.00000
     72     -17.9551      2.00000
     73     -17.9458      2.00000
     74     -17.9319      2.00000
     75     -17.9199      2.00000
     76     -17.9132      2.00000
     77     -17.9038      2.00000
     78     -17.9003      2.00000
     79     -17.8887      2.00000
     80     -17.8825      2.00000
     81     -17.8649      2.00000
     82     -17.8565      2.00000
     83     -17.8477      2.00000
     84     -17.8379      2.00000
     85     -17.8316      2.00000
     86     -17.8275      2.00000
     87     -17.8198      2.00000
     88     -17.8174      2.00000
     89     -17.8091      2.00000
     90     -17.8021      2.00000
     91     -17.7901      2.00000
     92     -17.7834      2.00000
     93     -17.7794      2.00000
     94     -17.7735      2.00000
     95     -17.7688      2.00000
     96     -17.7625      2.00000
     97     -17.7500      2.00000
     98     -17.7467      2.00000
     99     -17.7381      2.00000
    100     -17.7343      2.00000
    101     -17.7329      2.00000
    102     -17.7245      2.00000
    103     -17.7185      2.00000
    104     -17.7104      2.00000
    105     -17.7075      2.00000
    106     -17.7013      2.00000
    107     -17.6976      2.00000
    108     -17.6873      2.00000
    109     -17.6812      2.00000
    110     -17.6695      2.00000
    111     -17.6597      2.00000
    112     -17.6522      2.00000
    113     -17.6479      2.00000
    114     -17.6360      2.00000
    115     -17.6316      2.00000
    116     -17.6193      2.00000
    117     -17.6099      2.00000
    118     -17.6023      2.00000
    119     -17.5697      2.00000
    120     -17.5619      2.00000
    121     -17.5505      2.00000
    122     -17.5427      2.00000
    123     -17.5310      2.00000
    124     -17.5181      2.00000
    125     -17.5118      2.00000
    126     -17.4985      2.00000
    127     -17.4859      2.00000
    128     -17.4770      2.00000
    129     -17.4726      2.00000
    130     -17.4678      2.00000
    131     -17.4600      2.00000
    132     -17.4526      2.00000
    133     -17.4440      2.00000
    134     -17.4377      2.00000
    135     -17.4302      2.00000
    136     -17.4220      2.00000
    137     -17.4149      2.00000
    138     -17.4056      2.00000
    139     -17.4022      2.00000
    140     -17.3966      2.00000
    141     -17.3933      2.00000
    142     -17.3822      2.00000
    143     -17.3734      2.00000
    144     -17.3649      2.00000
    145     -17.3593      2.00000
    146     -17.3571      2.00000
    147     -17.3479      2.00000
    148     -17.3445      2.00000
    149     -17.3393      2.00000
    150     -17.3313      2.00000
    151     -17.3273      2.00000
    152     -17.3173      2.00000
    153     -17.3151      2.00000
    154     -17.3048      2.00000
    155     -17.2969      2.00000
    156     -17.2867      2.00000
    157     -17.2785      2.00000
    158     -17.2725      2.00000
    159     -17.2676      2.00000
    160     -17.2589      2.00000
    161     -17.2550      2.00000
    162     -17.2507      2.00000
    163     -17.2440      2.00000
    164     -17.2392      2.00000
    165     -17.2334      2.00000
    166     -17.2265      2.00000
    167     -17.2202      2.00000
    168     -17.2098      2.00000
    169     -17.2035      2.00000
    170     -17.2000      2.00000
    171     -17.1898      2.00000
    172     -17.1860      2.00000
    173     -17.1795      2.00000
    174     -17.1775      2.00000
    175     -17.1695      2.00000
    176     -17.1570      2.00000
    177     -17.1557      2.00000
    178     -17.1505      2.00000
    179     -17.1477      2.00000
    180     -17.1367      2.00000
    181     -17.1305      2.00000
    182     -17.1283      2.00000
    183     -17.1252      2.00000
    184     -17.1178      2.00000
    185     -17.1106      2.00000
    186     -17.1068      2.00000
    187     -17.1008      2.00000
    188     -17.0945      2.00000
    189     -17.0897      2.00000
    190     -17.0816      2.00000
    191     -17.0774      2.00000
    192     -17.0726      2.00000
    193     -17.0685      2.00000
    194     -17.0628      2.00000
    195     -17.0544      2.00000
    196     -17.0519      2.00000
    197     -17.0477      2.00000
    198     -17.0433      2.00000
    199     -17.0314      2.00000
    200     -17.0285      2.00000
    201     -17.0257      2.00000
    202     -17.0210      2.00000
    203     -17.0122      2.00000
    204     -17.0086      2.00000
    205     -17.0041      2.00000
    206     -17.0030      2.00000
    207     -16.9954      2.00000
    208     -16.9887      2.00000
    209     -16.9844      2.00000
    210     -16.9798      2.00000
    211     -16.9717      2.00000
    212     -16.9657      2.00000
    213     -16.9622      2.00000
    214     -16.9570      2.00000
    215     -16.9506      2.00000
    216     -16.9481      2.00000
    217     -16.9440      2.00000
    218     -16.9409      2.00000
    219     -16.9345      2.00000
    220     -16.9285      2.00000
    221     -16.9214      2.00000
    222     -16.9196      2.00000
    223     -16.9141      2.00000
    224     -16.9083      2.00000
    225     -16.9013      2.00000
    226     -16.8967      2.00000
    227     -16.8957      2.00000
    228     -16.8899      2.00000
    229     -16.8851      2.00000
    230     -16.8790      2.00000
    231     -16.8710      2.00000
    232     -16.8634      2.00000
    233     -16.8614      2.00000
    234     -16.8513      2.00000
    235     -16.8477      2.00000
    236     -16.8415      2.00000
    237     -16.8355      2.00000
    238     -16.8311      2.00000
    239     -16.8238      2.00000
    240     -16.8183      2.00000
    241     -16.8143      2.00000
    242     -16.8058      2.00000
    243     -16.7978      2.00000
    244     -16.7813      2.00000
    245     -16.7734      2.00000
    246     -16.7665      2.00000
    247     -16.7599      2.00000
    248     -16.7540      2.00000
    249     -16.7492      2.00000
    250     -16.7316      2.00000
    251     -16.7167      2.00000
    252     -16.7096      2.00000
    253     -16.6999      2.00000
    254     -16.6653      2.00000
    255     -16.6491      2.00000
    256     -16.6395      2.00000
    257       4.1669      2.00000
    258       4.5545      2.00000
    259       4.9567      2.00000
    260       5.2726      2.00000
    261       5.3039      2.00000
    262       5.3077      2.00000
    263       5.5837      2.00000
    264       5.6049      2.00000
    265       5.8233      2.00000
    266       5.8456      2.00000
    267       5.9805      2.00000
    268       6.0096      2.00000
    269       6.0411      2.00000
    270       6.1145      2.00000
    271       6.2270      2.00000
    272       6.2534      2.00000
    273       6.2851      2.00000
    274       6.3126      2.00000
    275       6.3446      2.00000
    276       6.3528      2.00000
    277       6.3750      2.00000
    278       6.4143      2.00000
    279       6.6858      2.00000
    280       6.7099      2.00000
    281       6.7338      2.00000
    282       6.7459      2.00000
    283       6.7620      2.00000
    284       6.7669      2.00000
    285       6.7975      2.00000
    286       6.8109      2.00000
    287       6.8207      2.00000
    288       6.8375      2.00000
    289       6.8704      2.00000
    290       6.8871      2.00000
    291       6.8993      2.00000
    292       6.9359      2.00000
    293       6.9737      2.00000
    294       7.0260      2.00000
    295       7.0382      2.00000
    296       7.0860      2.00000
    297       7.1026      2.00000
    298       7.1391      2.00000
    299       7.1643      2.00000
    300       7.1807      2.00000
    301       7.1896      2.00000
    302       7.2081      2.00000
    303       7.2271      2.00000
    304       7.2503      2.00000
    305       7.2772      2.00000
    306       7.3135      2.00000
    307       7.3421      2.00000
    308       7.3522      2.00000
    309       7.3725      2.00000
    310       7.3926      2.00000
    311       7.4098      2.00000
    312       7.4231      2.00000
    313       7.4641      2.00000
    314       7.5006      2.00000
    315       7.5190      2.00000
    316       7.5377      2.00000
    317       7.5792      2.00000
    318       7.5967      2.00000
    319       7.6267      2.00000
    320       7.6748      2.00000
    321       7.6938      2.00000
    322       7.7072      2.00000
    323       7.7186      2.00000
    324       7.7598      2.00000
    325       7.7719      2.00000
    326       7.8039      2.00000
    327       7.8196      2.00000
    328       7.8429      2.00000
    329       7.8616      2.00000
    330       7.8819      2.00000
    331       7.9088      2.00000
    332       7.9217      2.00000
    333       7.9392      2.00000
    334       7.9593      2.00000
    335       7.9796      2.00000
    336       8.0013      2.00000
    337       8.0186      2.00000
    338       8.0324      2.00000
    339       8.0472      2.00000
    340       8.0746      2.00000
    341       8.0997      2.00000
    342       8.1141      2.00000
    343       8.1458      2.00000
    344       8.1635      2.00000
    345       8.1960      2.00000
    346       8.2183      2.00000
    347       8.2405      2.00000
    348       8.2766      2.00000
    349       8.2856      2.00000
    350       8.3072      2.00000
    351       8.3176      2.00000
    352       8.3505      2.00000
    353       8.3864      2.00000
    354       8.3963      2.00000
    355       8.4241      2.00000
    356       8.4401      2.00000
    357       8.4892      2.00000
    358       8.5150      2.00000
    359       8.5304      2.00000
    360       8.5587      2.00000
    361       8.5707      2.00000
    362       8.5879      2.00000
    363       8.6102      2.00000
    364       8.6415      2.00000
    365       8.6807      2.00000
    366       8.7038      2.00000
    367       8.7260      2.00000
    368       8.7469      2.00000
    369       8.7887      2.00000
    370       8.8129      2.00000
    371       8.8354      2.00000
    372       8.8642      2.00000
    373       8.8984      2.00000
    374       8.9322      2.00000
    375       8.9726      2.00000
    376       9.0028      2.00000
    377       9.0247      2.00000
    378       9.0630      2.00000
    379       9.0832      2.00000
    380       9.1261      1.99989
    381       9.1753      1.98661
    382       9.1853      1.97142
    383       9.2285      1.66612
    384       9.2517      1.24386
    385       9.2720      0.79178
    386       9.2884      0.46764
    387       9.3095      0.18542
    388       9.3179      0.11866
    389       9.3527      0.01095
    390       9.3785      0.00106
    391       9.3931      0.00023
    392       9.4101      0.00003
    393       9.4353      0.00000
    394       9.4443      0.00000
    395       9.4838      0.00000
    396       9.5119      0.00000
    397       9.5204      0.00000
    398       9.5545      0.00000
    399       9.5682      0.00000
    400       9.6015      0.00000
    401       9.6272      0.00000
    402       9.6371      0.00000
    403       9.6729      0.00000
    404       9.6888      0.00000
    405       9.7076      0.00000
    406       9.7372      0.00000
    407       9.7448      0.00000
    408       9.7828      0.00000
    409       9.7971      0.00000
    410       9.8175      0.00000
    411       9.8254      0.00000
    412       9.8429      0.00000
    413       9.8705      0.00000
    414       9.8896      0.00000
    415       9.9075      0.00000
    416       9.9335      0.00000
    417       9.9386      0.00000
    418       9.9484      0.00000
    419       9.9909      0.00000
    420      10.0131      0.00000
    421      10.0310      0.00000
    422      10.0571      0.00000
    423      10.0845      0.00000
    424      10.1028      0.00000
    425      10.1059      0.00000
    426      10.1343      0.00000
    427      10.1759      0.00000
    428      10.1935      0.00000
    429      10.2094      0.00000
    430      10.2261      0.00000
    431      10.2673      0.00000
    432      10.2828      0.00000
    433      10.3136      0.00000
    434      10.3238      0.00000
    435      10.3316      0.00000
    436      10.3684      0.00000
    437      10.3724      0.00000
    438      10.4025      0.00000
    439      10.4302      0.00000
    440      10.4538      0.00000
    441      10.4613      0.00000
    442      10.4796      0.00000
    443      10.5077      0.00000
    444      10.5391      0.00000
    445      10.5598      0.00000
    446      10.5789      0.00000
    447      10.5984      0.00000
    448      10.6133      0.00000
    449      10.6219      0.00000
    450      10.6465      0.00000
    451      10.6834      0.00000
    452      10.6951      0.00000
    453      10.7306      0.00000
    454      10.7420      0.00000
    455      10.7752      0.00000
    456      10.7896      0.00000
    457      10.8280      0.00000
    458      10.8494      0.00000
    459      10.8585      0.00000
    460      10.8884      0.00000
    461      10.8998      0.00000
    462      10.9392      0.00000
    463      10.9566      0.00000
    464      10.9891      0.00000

 k-point    32 :       0.0000   -0.2500    0.4000
  band No.  band energies     occupation 
      1     -45.5192      2.00000
      2     -39.4659      2.00000
      3     -39.4257      2.00000
      4     -39.4081      2.00000
      5     -39.3984      2.00000
      6     -39.3956      2.00000
      7     -39.3868      2.00000
      8     -39.3775      2.00000
      9     -39.3629      2.00000
     10     -39.3596      2.00000
     11     -39.3449      2.00000
     12     -39.3397      2.00000
     13     -39.3337      2.00000
     14     -39.3259      2.00000
     15     -39.3212      2.00000
     16     -39.3116      2.00000
     17     -39.2988      2.00000
     18     -39.2975      2.00000
     19     -39.2908      2.00000
     20     -39.2887      2.00000
     21     -39.2838      2.00000
     22     -39.2730      2.00000
     23     -39.2644      2.00000
     24     -39.2603      2.00000
     25     -39.2478      2.00000
     26     -39.2430      2.00000
     27     -39.2396      2.00000
     28     -39.2365      2.00000
     29     -39.2336      2.00000
     30     -39.2297      2.00000
     31     -39.2236      2.00000
     32     -39.2173      2.00000
     33     -39.2120      2.00000
     34     -39.2045      2.00000
     35     -39.1977      2.00000
     36     -39.1883      2.00000
     37     -39.1783      2.00000
     38     -39.1741      2.00000
     39     -39.1639      2.00000
     40     -39.1554      2.00000
     41     -39.1515      2.00000
     42     -39.1494      2.00000
     43     -39.1449      2.00000
     44     -39.1343      2.00000
     45     -39.1284      2.00000
     46     -39.1236      2.00000
     47     -39.1135      2.00000
     48     -39.1085      2.00000
     49     -39.1045      2.00000
     50     -39.1003      2.00000
     51     -39.0958      2.00000
     52     -39.0943      2.00000
     53     -39.0828      2.00000
     54     -39.0713      2.00000
     55     -39.0642      2.00000
     56     -39.0610      2.00000
     57     -39.0313      2.00000
     58     -39.0256      2.00000
     59     -39.0215      2.00000
     60     -39.0196      2.00000
     61     -39.0159      2.00000
     62     -38.9513      2.00000
     63     -38.9136      2.00000
     64     -38.9133      2.00000
     65     -21.6081      2.00000
     66     -21.5850      2.00000
     67     -21.5569      2.00000
     68     -18.0308      2.00000
     69     -17.9906      2.00000
     70     -17.9817      2.00000
     71     -17.9658      2.00000
     72     -17.9526      2.00000
     73     -17.9469      2.00000
     74     -17.9325      2.00000
     75     -17.9204      2.00000
     76     -17.9112      2.00000
     77     -17.9042      2.00000
     78     -17.9018      2.00000
     79     -17.8855      2.00000
     80     -17.8807      2.00000
     81     -17.8624      2.00000
     82     -17.8545      2.00000
     83     -17.8462      2.00000
     84     -17.8445      2.00000
     85     -17.8327      2.00000
     86     -17.8289      2.00000
     87     -17.8252      2.00000
     88     -17.8145      2.00000
     89     -17.8086      2.00000
     90     -17.8034      2.00000
     91     -17.7933      2.00000
     92     -17.7840      2.00000
     93     -17.7774      2.00000
     94     -17.7732      2.00000
     95     -17.7688      2.00000
     96     -17.7575      2.00000
     97     -17.7539      2.00000
     98     -17.7466      2.00000
     99     -17.7434      2.00000
    100     -17.7347      2.00000
    101     -17.7319      2.00000
    102     -17.7242      2.00000
    103     -17.7216      2.00000
    104     -17.7107      2.00000
    105     -17.7073      2.00000
    106     -17.7032      2.00000
    107     -17.6957      2.00000
    108     -17.6893      2.00000
    109     -17.6816      2.00000
    110     -17.6663      2.00000
    111     -17.6567      2.00000
    112     -17.6499      2.00000
    113     -17.6411      2.00000
    114     -17.6360      2.00000
    115     -17.6303      2.00000
    116     -17.6177      2.00000
    117     -17.6037      2.00000
    118     -17.5907      2.00000
    119     -17.5811      2.00000
    120     -17.5678      2.00000
    121     -17.5514      2.00000
    122     -17.5380      2.00000
    123     -17.5310      2.00000
    124     -17.5200      2.00000
    125     -17.5074      2.00000
    126     -17.5018      2.00000
    127     -17.4935      2.00000
    128     -17.4856      2.00000
    129     -17.4790      2.00000
    130     -17.4648      2.00000
    131     -17.4586      2.00000
    132     -17.4530      2.00000
    133     -17.4474      2.00000
    134     -17.4381      2.00000
    135     -17.4275      2.00000
    136     -17.4203      2.00000
    137     -17.4139      2.00000
    138     -17.4070      2.00000
    139     -17.3990      2.00000
    140     -17.3942      2.00000
    141     -17.3887      2.00000
    142     -17.3782      2.00000
    143     -17.3735      2.00000
    144     -17.3718      2.00000
    145     -17.3633      2.00000
    146     -17.3601      2.00000
    147     -17.3487      2.00000
    148     -17.3455      2.00000
    149     -17.3309      2.00000
    150     -17.3285      2.00000
    151     -17.3213      2.00000
    152     -17.3179      2.00000
    153     -17.3128      2.00000
    154     -17.3088      2.00000
    155     -17.2955      2.00000
    156     -17.2872      2.00000
    157     -17.2833      2.00000
    158     -17.2768      2.00000
    159     -17.2700      2.00000
    160     -17.2641      2.00000
    161     -17.2533      2.00000
    162     -17.2483      2.00000
    163     -17.2398      2.00000
    164     -17.2335      2.00000
    165     -17.2286      2.00000
    166     -17.2239      2.00000
    167     -17.2168      2.00000
    168     -17.2143      2.00000
    169     -17.2048      2.00000
    170     -17.1995      2.00000
    171     -17.1953      2.00000
    172     -17.1846      2.00000
    173     -17.1791      2.00000
    174     -17.1726      2.00000
    175     -17.1693      2.00000
    176     -17.1663      2.00000
    177     -17.1566      2.00000
    178     -17.1493      2.00000
    179     -17.1443      2.00000
    180     -17.1397      2.00000
    181     -17.1315      2.00000
    182     -17.1293      2.00000
    183     -17.1255      2.00000
    184     -17.1156      2.00000
    185     -17.1108      2.00000
    186     -17.1053      2.00000
    187     -17.1022      2.00000
    188     -17.0950      2.00000
    189     -17.0889      2.00000
    190     -17.0841      2.00000
    191     -17.0772      2.00000
    192     -17.0707      2.00000
    193     -17.0659      2.00000
    194     -17.0621      2.00000
    195     -17.0554      2.00000
    196     -17.0530      2.00000
    197     -17.0465      2.00000
    198     -17.0426      2.00000
    199     -17.0395      2.00000
    200     -17.0332      2.00000
    201     -17.0265      2.00000
    202     -17.0213      2.00000
    203     -17.0161      2.00000
    204     -17.0077      2.00000
    205     -17.0042      2.00000
    206     -16.9978      2.00000
    207     -16.9934      2.00000
    208     -16.9879      2.00000
    209     -16.9816      2.00000
    210     -16.9761      2.00000
    211     -16.9708      2.00000
    212     -16.9675      2.00000
    213     -16.9589      2.00000
    214     -16.9574      2.00000
    215     -16.9536      2.00000
    216     -16.9493      2.00000
    217     -16.9431      2.00000
    218     -16.9368      2.00000
    219     -16.9330      2.00000
    220     -16.9290      2.00000
    221     -16.9250      2.00000
    222     -16.9192      2.00000
    223     -16.9138      2.00000
    224     -16.9106      2.00000
    225     -16.9024      2.00000
    226     -16.8968      2.00000
    227     -16.8927      2.00000
    228     -16.8902      2.00000
    229     -16.8857      2.00000
    230     -16.8781      2.00000
    231     -16.8744      2.00000
    232     -16.8633      2.00000
    233     -16.8600      2.00000
    234     -16.8537      2.00000
    235     -16.8445      2.00000
    236     -16.8426      2.00000
    237     -16.8339      2.00000
    238     -16.8263      2.00000
    239     -16.8219      2.00000
    240     -16.8177      2.00000
    241     -16.8145      2.00000
    242     -16.8106      2.00000
    243     -16.7989      2.00000
    244     -16.7836      2.00000
    245     -16.7742      2.00000
    246     -16.7665      2.00000
    247     -16.7620      2.00000
    248     -16.7549      2.00000
    249     -16.7477      2.00000
    250     -16.7298      2.00000
    251     -16.7156      2.00000
    252     -16.7086      2.00000
    253     -16.7005      2.00000
    254     -16.6638      2.00000
    255     -16.6508      2.00000
    256     -16.6395      2.00000
    257       4.1672      2.00000
    258       4.5536      2.00000
    259       4.9590      2.00000
    260       5.2845      2.00000
    261       5.2917      2.00000
    262       5.3114      2.00000
    263       5.5846      2.00000
    264       5.6015      2.00000
    265       5.8165      2.00000
    266       5.8330      2.00000
    267       5.9882      2.00000
    268       6.0091      2.00000
    269       6.0387      2.00000
    270       6.1197      2.00000
    271       6.2358      2.00000
    272       6.2498      2.00000
    273       6.2787      2.00000
    274       6.3006      2.00000
    275       6.3434      2.00000
    276       6.3631      2.00000
    277       6.3814      2.00000
    278       6.4198      2.00000
    279       6.6860      2.00000
    280       6.7122      2.00000
    281       6.7304      2.00000
    282       6.7502      2.00000
    283       6.7602      2.00000
    284       6.7873      2.00000
    285       6.8022      2.00000
    286       6.8152      2.00000
    287       6.8267      2.00000
    288       6.8403      2.00000
    289       6.8550      2.00000
    290       6.8790      2.00000
    291       6.9018      2.00000
    292       6.9235      2.00000
    293       6.9716      2.00000
    294       7.0212      2.00000
    295       7.0495      2.00000
    296       7.0761      2.00000
    297       7.1066      2.00000
    298       7.1410      2.00000
    299       7.1712      2.00000
    300       7.1775      2.00000
    301       7.1996      2.00000
    302       7.2178      2.00000
    303       7.2382      2.00000
    304       7.2496      2.00000
    305       7.2725      2.00000
    306       7.2949      2.00000
    307       7.3110      2.00000
    308       7.3439      2.00000
    309       7.3638      2.00000
    310       7.3911      2.00000
    311       7.4167      2.00000
    312       7.4425      2.00000
    313       7.4791      2.00000
    314       7.4880      2.00000
    315       7.5348      2.00000
    316       7.5500      2.00000
    317       7.5723      2.00000
    318       7.5836      2.00000
    319       7.6229      2.00000
    320       7.6547      2.00000
    321       7.6807      2.00000
    322       7.6979      2.00000
    323       7.7228      2.00000
    324       7.7606      2.00000
    325       7.7855      2.00000
    326       7.8006      2.00000
    327       7.8258      2.00000
    328       7.8304      2.00000
    329       7.8528      2.00000
    330       7.8866      2.00000
    331       7.8995      2.00000
    332       7.9100      2.00000
    333       7.9411      2.00000
    334       7.9556      2.00000
    335       7.9693      2.00000
    336       7.9852      2.00000
    337       8.0282      2.00000
    338       8.0549      2.00000
    339       8.0719      2.00000
    340       8.0868      2.00000
    341       8.1010      2.00000
    342       8.1226      2.00000
    343       8.1375      2.00000
    344       8.1822      2.00000
    345       8.2040      2.00000
    346       8.2215      2.00000
    347       8.2396      2.00000
    348       8.2605      2.00000
    349       8.2960      2.00000
    350       8.3202      2.00000
    351       8.3412      2.00000
    352       8.3464      2.00000
    353       8.3512      2.00000
    354       8.4031      2.00000
    355       8.4092      2.00000
    356       8.4264      2.00000
    357       8.4511      2.00000
    358       8.5050      2.00000
    359       8.5278      2.00000
    360       8.5538      2.00000
    361       8.5645      2.00000
    362       8.6166      2.00000
    363       8.6245      2.00000
    364       8.6618      2.00000
    365       8.6860      2.00000
    366       8.7011      2.00000
    367       8.7295      2.00000
    368       8.7623      2.00000
    369       8.7803      2.00000
    370       8.8125      2.00000
    371       8.8497      2.00000
    372       8.8693      2.00000
    373       8.9046      2.00000
    374       8.9290      2.00000
    375       8.9710      2.00000
    376       9.0108      2.00000
    377       9.0224      2.00000
    378       9.0619      2.00000
    379       9.0851      2.00000
    380       9.1376      1.99960
    381       9.1576      1.99706
    382       9.1844      1.97315
    383       9.2338      1.58677
    384       9.2532      1.21118
    385       9.2750      0.72872
    386       9.3034      0.25019
    387       9.3157      0.13384
    388       9.3308      0.05391
    389       9.3481      0.01571
    390       9.3729      0.00182
    391       9.3986      0.00012
    392       9.4147      0.00002
    393       9.4263      0.00000
    394       9.4531      0.00000
    395       9.4732      0.00000
    396       9.5170      0.00000
    397       9.5423      0.00000
    398       9.5584      0.00000
    399       9.5793      0.00000
    400       9.5886      0.00000
    401       9.6204      0.00000
    402       9.6475      0.00000
    403       9.6662      0.00000
    404       9.6883      0.00000
    405       9.7287      0.00000
    406       9.7463      0.00000
    407       9.7561      0.00000
    408       9.7718      0.00000
    409       9.7776      0.00000
    410       9.7986      0.00000
    411       9.8178      0.00000
    412       9.8590      0.00000
    413       9.8667      0.00000
    414       9.8768      0.00000
    415       9.8984      0.00000
    416       9.9286      0.00000
    417       9.9462      0.00000
    418       9.9531      0.00000
    419       9.9792      0.00000
    420      10.0089      0.00000
    421      10.0236      0.00000
    422      10.0359      0.00000
    423      10.0545      0.00000
    424      10.0865      0.00000
    425      10.1090      0.00000
    426      10.1347      0.00000
    427      10.1630      0.00000
    428      10.1803      0.00000
    429      10.2054      0.00000
    430      10.2502      0.00000
    431      10.2709      0.00000
    432      10.2832      0.00000
    433      10.2942      0.00000
    434      10.3089      0.00000
    435      10.3453      0.00000
    436      10.3620      0.00000
    437      10.3802      0.00000
    438      10.3927      0.00000
    439      10.4189      0.00000
    440      10.4489      0.00000
    441      10.4688      0.00000
    442      10.4766      0.00000
    443      10.5028      0.00000
    444      10.5338      0.00000
    445      10.5504      0.00000
    446      10.5657      0.00000
    447      10.6031      0.00000
    448      10.6106      0.00000
    449      10.6348      0.00000
    450      10.6693      0.00000
    451      10.6976      0.00000
    452      10.7210      0.00000
    453      10.7424      0.00000
    454      10.7616      0.00000
    455      10.7792      0.00000
    456      10.7922      0.00000
    457      10.8206      0.00000
    458      10.8472      0.00000
    459      10.8583      0.00000
    460      10.8823      0.00000
    461      10.9023      0.00000
    462      10.9355      0.00000
    463      10.9629      0.00000
    464      10.9924      0.00000

 k-point    33 :       0.2500    0.2500    0.4000
  band No.  band energies     occupation 
      1     -45.5192      2.00000
      2     -39.4657      2.00000
      3     -39.4250      2.00000
      4     -39.4087      2.00000
      5     -39.3993      2.00000
      6     -39.3943      2.00000
      7     -39.3887      2.00000
      8     -39.3764      2.00000
      9     -39.3649      2.00000
     10     -39.3572      2.00000
     11     -39.3455      2.00000
     12     -39.3398      2.00000
     13     -39.3323      2.00000
     14     -39.3279      2.00000
     15     -39.3210      2.00000
     16     -39.3108      2.00000
     17     -39.3015      2.00000
     18     -39.2951      2.00000
     19     -39.2911      2.00000
     20     -39.2886      2.00000
     21     -39.2841      2.00000
     22     -39.2714      2.00000
     23     -39.2660      2.00000
     24     -39.2588      2.00000
     25     -39.2480      2.00000
     26     -39.2433      2.00000
     27     -39.2387      2.00000
     28     -39.2378      2.00000
     29     -39.2327      2.00000
     30     -39.2302      2.00000
     31     -39.2227      2.00000
     32     -39.2171      2.00000
     33     -39.2127      2.00000
     34     -39.2044      2.00000
     35     -39.1981      2.00000
     36     -39.1880      2.00000
     37     -39.1795      2.00000
     38     -39.1732      2.00000
     39     -39.1642      2.00000
     40     -39.1554      2.00000
     41     -39.1525      2.00000
     42     -39.1481      2.00000
     43     -39.1446      2.00000
     44     -39.1362      2.00000
     45     -39.1274      2.00000
     46     -39.1234      2.00000
     47     -39.1135      2.00000
     48     -39.1077      2.00000
     49     -39.1047      2.00000
     50     -39.1005      2.00000
     51     -39.0967      2.00000
     52     -39.0936      2.00000
     53     -39.0829      2.00000
     54     -39.0712      2.00000
     55     -39.0643      2.00000
     56     -39.0608      2.00000
     57     -39.0313      2.00000
     58     -39.0256      2.00000
     59     -39.0214      2.00000
     60     -39.0197      2.00000
     61     -39.0159      2.00000
     62     -38.9513      2.00000
     63     -38.9136      2.00000
     64     -38.9133      2.00000
     65     -21.6081      2.00000
     66     -21.5850      2.00000
     67     -21.5569      2.00000
     68     -18.0305      2.00000
     69     -17.9872      2.00000
     70     -17.9728      2.00000
     71     -17.9638      2.00000
     72     -17.9520      2.00000
     73     -17.9431      2.00000
     74     -17.9290      2.00000
     75     -17.9188      2.00000
     76     -17.9120      2.00000
     77     -17.9050      2.00000
     78     -17.8971      2.00000
     79     -17.8850      2.00000
     80     -17.8798      2.00000
     81     -17.8690      2.00000
     82     -17.8574      2.00000
     83     -17.8533      2.00000
     84     -17.8444      2.00000
     85     -17.8355      2.00000
     86     -17.8260      2.00000
     87     -17.8169      2.00000
     88     -17.8126      2.00000
     89     -17.8091      2.00000
     90     -17.8027      2.00000
     91     -17.7943      2.00000
     92     -17.7888      2.00000
     93     -17.7815      2.00000
     94     -17.7759      2.00000
     95     -17.7722      2.00000
     96     -17.7641      2.00000
     97     -17.7521      2.00000
     98     -17.7477      2.00000
     99     -17.7441      2.00000
    100     -17.7373      2.00000
    101     -17.7321      2.00000
    102     -17.7229      2.00000
    103     -17.7177      2.00000
    104     -17.7149      2.00000
    105     -17.7041      2.00000
    106     -17.6969      2.00000
    107     -17.6887      2.00000
    108     -17.6811      2.00000
    109     -17.6778      2.00000
    110     -17.6692      2.00000
    111     -17.6601      2.00000
    112     -17.6504      2.00000
    113     -17.6432      2.00000
    114     -17.6293      2.00000
    115     -17.6272      2.00000
    116     -17.6122      2.00000
    117     -17.6077      2.00000
    118     -17.5961      2.00000
    119     -17.5816      2.00000
    120     -17.5748      2.00000
    121     -17.5628      2.00000
    122     -17.5511      2.00000
    123     -17.5442      2.00000
    124     -17.5291      2.00000
    125     -17.5237      2.00000
    126     -17.5047      2.00000
    127     -17.4962      2.00000
    128     -17.4868      2.00000
    129     -17.4835      2.00000
    130     -17.4729      2.00000
    131     -17.4626      2.00000
    132     -17.4588      2.00000
    133     -17.4481      2.00000
    134     -17.4382      2.00000
    135     -17.4267      2.00000
    136     -17.4203      2.00000
    137     -17.4181      2.00000
    138     -17.4105      2.00000
    139     -17.4076      2.00000
    140     -17.4015      2.00000
    141     -17.3878      2.00000
    142     -17.3813      2.00000
    143     -17.3776      2.00000
    144     -17.3651      2.00000
    145     -17.3576      2.00000
    146     -17.3536      2.00000
    147     -17.3428      2.00000
    148     -17.3403      2.00000
    149     -17.3319      2.00000
    150     -17.3228      2.00000
    151     -17.3159      2.00000
    152     -17.3125      2.00000
    153     -17.3088      2.00000
    154     -17.2994      2.00000
    155     -17.2898      2.00000
    156     -17.2810      2.00000
    157     -17.2753      2.00000
    158     -17.2721      2.00000
    159     -17.2652      2.00000
    160     -17.2558      2.00000
    161     -17.2509      2.00000
    162     -17.2471      2.00000
    163     -17.2413      2.00000
    164     -17.2343      2.00000
    165     -17.2253      2.00000
    166     -17.2214      2.00000
    167     -17.2123      2.00000
    168     -17.2071      2.00000
    169     -17.2005      2.00000
    170     -17.1925      2.00000
    171     -17.1870      2.00000
    172     -17.1818      2.00000
    173     -17.1803      2.00000
    174     -17.1728      2.00000
    175     -17.1630      2.00000
    176     -17.1620      2.00000
    177     -17.1557      2.00000
    178     -17.1485      2.00000
    179     -17.1449      2.00000
    180     -17.1395      2.00000
    181     -17.1338      2.00000
    182     -17.1290      2.00000
    183     -17.1217      2.00000
    184     -17.1198      2.00000
    185     -17.1113      2.00000
    186     -17.1052      2.00000
    187     -17.0969      2.00000
    188     -17.0957      2.00000
    189     -17.0901      2.00000
    190     -17.0860      2.00000
    191     -17.0775      2.00000
    192     -17.0746      2.00000
    193     -17.0685      2.00000
    194     -17.0638      2.00000
    195     -17.0584      2.00000
    196     -17.0491      2.00000
    197     -17.0457      2.00000
    198     -17.0424      2.00000
    199     -17.0378      2.00000
    200     -17.0301      2.00000
    201     -17.0259      2.00000
    202     -17.0234      2.00000
    203     -17.0147      2.00000
    204     -17.0079      2.00000
    205     -17.0052      2.00000
    206     -16.9977      2.00000
    207     -16.9939      2.00000
    208     -16.9886      2.00000
    209     -16.9839      2.00000
    210     -16.9783      2.00000
    211     -16.9742      2.00000
    212     -16.9697      2.00000
    213     -16.9651      2.00000
    214     -16.9609      2.00000
    215     -16.9504      2.00000
    216     -16.9473      2.00000
    217     -16.9427      2.00000
    218     -16.9407      2.00000
    219     -16.9358      2.00000
    220     -16.9298      2.00000
    221     -16.9250      2.00000
    222     -16.9193      2.00000
    223     -16.9167      2.00000
    224     -16.9073      2.00000
    225     -16.9031      2.00000
    226     -16.9012      2.00000
    227     -16.8959      2.00000
    228     -16.8892      2.00000
    229     -16.8837      2.00000
    230     -16.8784      2.00000
    231     -16.8699      2.00000
    232     -16.8639      2.00000
    233     -16.8601      2.00000
    234     -16.8517      2.00000
    235     -16.8488      2.00000
    236     -16.8428      2.00000
    237     -16.8369      2.00000
    238     -16.8313      2.00000
    239     -16.8239      2.00000
    240     -16.8168      2.00000
    241     -16.8142      2.00000
    242     -16.8074      2.00000
    243     -16.8004      2.00000
    244     -16.7836      2.00000
    245     -16.7762      2.00000
    246     -16.7653      2.00000
    247     -16.7599      2.00000
    248     -16.7549      2.00000
    249     -16.7485      2.00000
    250     -16.7317      2.00000
    251     -16.7166      2.00000
    252     -16.7092      2.00000
    253     -16.6997      2.00000
    254     -16.6651      2.00000
    255     -16.6495      2.00000
    256     -16.6416      2.00000
    257       4.2478      2.00000
    258       4.6313      2.00000
    259       4.8438      2.00000
    260       5.0307      2.00000
    261       5.1899      2.00000
    262       5.3563      2.00000
    263       5.5211      2.00000
    264       5.7739      2.00000
    265       5.7958      2.00000
    266       6.0018      2.00000
    267       6.0687      2.00000
    268       6.0972      2.00000
    269       6.1593      2.00000
    270       6.1860      2.00000
    271       6.2611      2.00000
    272       6.2832      2.00000
    273       6.3133      2.00000
    274       6.3653      2.00000
    275       6.3787      2.00000
    276       6.4084      2.00000
    277       6.4291      2.00000
    278       6.4578      2.00000
    279       6.5463      2.00000
    280       6.6012      2.00000
    281       6.6348      2.00000
    282       6.6577      2.00000
    283       6.6853      2.00000
    284       6.7155      2.00000
    285       6.7457      2.00000
    286       6.7938      2.00000
    287       6.8188      2.00000
    288       6.8275      2.00000
    289       6.8639      2.00000
    290       6.8723      2.00000
    291       6.9088      2.00000
    292       6.9169      2.00000
    293       6.9443      2.00000
    294       6.9653      2.00000
    295       7.0045      2.00000
    296       7.0357      2.00000
    297       7.0459      2.00000
    298       7.0972      2.00000
    299       7.1216      2.00000
    300       7.1345      2.00000
    301       7.1757      2.00000
    302       7.2117      2.00000
    303       7.2551      2.00000
    304       7.2729      2.00000
    305       7.2817      2.00000
    306       7.3226      2.00000
    307       7.3452      2.00000
    308       7.3654      2.00000
    309       7.3871      2.00000
    310       7.4051      2.00000
    311       7.4385      2.00000
    312       7.4481      2.00000
    313       7.4752      2.00000
    314       7.5244      2.00000
    315       7.5412      2.00000
    316       7.5690      2.00000
    317       7.5787      2.00000
    318       7.6066      2.00000
    319       7.6377      2.00000
    320       7.6544      2.00000
    321       7.6844      2.00000
    322       7.6955      2.00000
    323       7.7385      2.00000
    324       7.7445      2.00000
    325       7.7715      2.00000
    326       7.7999      2.00000
    327       7.8181      2.00000
    328       7.8431      2.00000
    329       7.8614      2.00000
    330       7.8717      2.00000
    331       7.8993      2.00000
    332       7.9093      2.00000
    333       7.9259      2.00000
    334       7.9424      2.00000
    335       7.9722      2.00000
    336       7.9906      2.00000
    337       8.0162      2.00000
    338       8.0332      2.00000
    339       8.0494      2.00000
    340       8.0688      2.00000
    341       8.1002      2.00000
    342       8.1145      2.00000
    343       8.1308      2.00000
    344       8.1641      2.00000
    345       8.1894      2.00000
    346       8.2129      2.00000
    347       8.2418      2.00000
    348       8.2792      2.00000
    349       8.3010      2.00000
    350       8.3218      2.00000
    351       8.3395      2.00000
    352       8.3605      2.00000
    353       8.3913      2.00000
    354       8.4056      2.00000
    355       8.4278      2.00000
    356       8.4510      2.00000
    357       8.4847      2.00000
    358       8.5109      2.00000
    359       8.5370      2.00000
    360       8.5591      2.00000
    361       8.5808      2.00000
    362       8.5922      2.00000
    363       8.6254      2.00000
    364       8.6514      2.00000
    365       8.6718      2.00000
    366       8.6927      2.00000
    367       8.7224      2.00000
    368       8.7723      2.00000
    369       8.7859      2.00000
    370       8.8071      2.00000
    371       8.8248      2.00000
    372       8.8735      2.00000
    373       8.8962      2.00000
    374       8.9104      2.00000
    375       8.9383      2.00000
    376       8.9821      2.00000
    377       9.0232      2.00000
    378       9.0604      2.00000
    379       9.0866      2.00000
    380       9.1405      1.99945
    381       9.1622      1.99554
    382       9.1827      1.97633
    383       9.2188      1.78550
    384       9.2452      1.38003
    385       9.2760      0.70633
    386       9.2900      0.43988
    387       9.3138      0.14815
    388       9.3368      0.03615
    389       9.3597      0.00610
    390       9.3683      0.00283
    391       9.3946      0.00019
    392       9.4252      0.00000
    393       9.4482      0.00000
    394       9.4766      0.00000
    395       9.5012      0.00000
    396       9.5291      0.00000
    397       9.5439      0.00000
    398       9.5674      0.00000
    399       9.5913      0.00000
    400       9.6189      0.00000
    401       9.6243      0.00000
    402       9.6486      0.00000
    403       9.6642      0.00000
    404       9.6840      0.00000
    405       9.7192      0.00000
    406       9.7468      0.00000
    407       9.7593      0.00000
    408       9.7692      0.00000
    409       9.7974      0.00000
    410       9.8206      0.00000
    411       9.8493      0.00000
    412       9.8696      0.00000
    413       9.8830      0.00000
    414       9.8992      0.00000
    415       9.9146      0.00000
    416       9.9382      0.00000
    417       9.9584      0.00000
    418       9.9726      0.00000
    419       9.9935      0.00000
    420      10.0291      0.00000
    421      10.0505      0.00000
    422      10.0609      0.00000
    423      10.0883      0.00000
    424      10.0955      0.00000
    425      10.1085      0.00000
    426      10.1354      0.00000
    427      10.1840      0.00000
    428      10.2016      0.00000
    429      10.2060      0.00000
    430      10.2350      0.00000
    431      10.2662      0.00000
    432      10.2683      0.00000
    433      10.2840      0.00000
    434      10.3094      0.00000
    435      10.3339      0.00000
    436      10.3482      0.00000
    437      10.3828      0.00000
    438      10.4054      0.00000
    439      10.4304      0.00000
    440      10.4468      0.00000
    441      10.4544      0.00000
    442      10.4779      0.00000
    443      10.5008      0.00000
    444      10.5352      0.00000
    445      10.5495      0.00000
    446      10.5576      0.00000
    447      10.5867      0.00000
    448      10.6164      0.00000
    449      10.6343      0.00000
    450      10.6582      0.00000
    451      10.6870      0.00000
    452      10.7113      0.00000
    453      10.7342      0.00000
    454      10.7414      0.00000
    455      10.7519      0.00000
    456      10.7910      0.00000
    457      10.8245      0.00000
    458      10.8492      0.00000
    459      10.8631      0.00000
    460      10.8870      0.00000
    461      10.9121      0.00000
    462      10.9252      0.00000
    463      10.9461      0.00000
    464      10.9749      0.00000

 k-point    34 :      -0.2500   -0.2500    0.4000
  band No.  band energies     occupation 
      1     -45.5192      2.00000
      2     -39.4657      2.00000
      3     -39.4252      2.00000
      4     -39.4087      2.00000
      5     -39.3988      2.00000
      6     -39.3954      2.00000
      7     -39.3869      2.00000
      8     -39.3772      2.00000
      9     -39.3642      2.00000
     10     -39.3591      2.00000
     11     -39.3461      2.00000
     12     -39.3389      2.00000
     13     -39.3312      2.00000
     14     -39.3284      2.00000
     15     -39.3207      2.00000
     16     -39.3113      2.00000
     17     -39.2988      2.00000
     18     -39.2972      2.00000
     19     -39.2908      2.00000
     20     -39.2887      2.00000
     21     -39.2843      2.00000
     22     -39.2720      2.00000
     23     -39.2652      2.00000
     24     -39.2597      2.00000
     25     -39.2481      2.00000
     26     -39.2426      2.00000
     27     -39.2394      2.00000
     28     -39.2367      2.00000
     29     -39.2331      2.00000
     30     -39.2291      2.00000
     31     -39.2241      2.00000
     32     -39.2177      2.00000
     33     -39.2117      2.00000
     34     -39.2045      2.00000
     35     -39.1986      2.00000
     36     -39.1886      2.00000
     37     -39.1778      2.00000
     38     -39.1739      2.00000
     39     -39.1641      2.00000
     40     -39.1549      2.00000
     41     -39.1528      2.00000
     42     -39.1488      2.00000
     43     -39.1449      2.00000
     44     -39.1349      2.00000
     45     -39.1279      2.00000
     46     -39.1235      2.00000
     47     -39.1138      2.00000
     48     -39.1073      2.00000
     49     -39.1050      2.00000
     50     -39.1000      2.00000
     51     -39.0972      2.00000
     52     -39.0935      2.00000
     53     -39.0830      2.00000
     54     -39.0711      2.00000
     55     -39.0642      2.00000
     56     -39.0609      2.00000
     57     -39.0313      2.00000
     58     -39.0256      2.00000
     59     -39.0214      2.00000
     60     -39.0197      2.00000
     61     -39.0159      2.00000
     62     -38.9513      2.00000
     63     -38.9136      2.00000
     64     -38.9133      2.00000
     65     -21.6081      2.00000
     66     -21.5850      2.00000
     67     -21.5569      2.00000
     68     -18.0289      2.00000
     69     -17.9858      2.00000
     70     -17.9791      2.00000
     71     -17.9632      2.00000
     72     -17.9508      2.00000
     73     -17.9426      2.00000
     74     -17.9283      2.00000
     75     -17.9191      2.00000
     76     -17.9087      2.00000
     77     -17.9054      2.00000
     78     -17.8943      2.00000
     79     -17.8889      2.00000
     80     -17.8753      2.00000
     81     -17.8696      2.00000
     82     -17.8607      2.00000
     83     -17.8505      2.00000
     84     -17.8444      2.00000
     85     -17.8345      2.00000
     86     -17.8305      2.00000
     87     -17.8199      2.00000
     88     -17.8155      2.00000
     89     -17.8085      2.00000
     90     -17.8033      2.00000
     91     -17.7996      2.00000
     92     -17.7883      2.00000
     93     -17.7818      2.00000
     94     -17.7734      2.00000
     95     -17.7702      2.00000
     96     -17.7609      2.00000
     97     -17.7559      2.00000
     98     -17.7511      2.00000
     99     -17.7453      2.00000
    100     -17.7369      2.00000
    101     -17.7285      2.00000
    102     -17.7219      2.00000
    103     -17.7165      2.00000
    104     -17.7090      2.00000
    105     -17.7044      2.00000
    106     -17.6996      2.00000
    107     -17.6887      2.00000
    108     -17.6850      2.00000
    109     -17.6774      2.00000
    110     -17.6628      2.00000
    111     -17.6568      2.00000
    112     -17.6510      2.00000
    113     -17.6421      2.00000
    114     -17.6311      2.00000
    115     -17.6242      2.00000
    116     -17.6145      2.00000
    117     -17.5974      2.00000
    118     -17.5900      2.00000
    119     -17.5859      2.00000
    120     -17.5799      2.00000
    121     -17.5674      2.00000
    122     -17.5594      2.00000
    123     -17.5497      2.00000
    124     -17.5315      2.00000
    125     -17.5135      2.00000
    126     -17.5048      2.00000
    127     -17.4970      2.00000
    128     -17.4829      2.00000
    129     -17.4799      2.00000
    130     -17.4767      2.00000
    131     -17.4658      2.00000
    132     -17.4556      2.00000
    133     -17.4492      2.00000
    134     -17.4403      2.00000
    135     -17.4293      2.00000
    136     -17.4261      2.00000
    137     -17.4161      2.00000
    138     -17.4092      2.00000
    139     -17.4048      2.00000
    140     -17.3962      2.00000
    141     -17.3891      2.00000
    142     -17.3854      2.00000
    143     -17.3734      2.00000
    144     -17.3641      2.00000
    145     -17.3607      2.00000
    146     -17.3584      2.00000
    147     -17.3421      2.00000
    148     -17.3355      2.00000
    149     -17.3326      2.00000
    150     -17.3261      2.00000
    151     -17.3205      2.00000
    152     -17.3099      2.00000
    153     -17.3047      2.00000
    154     -17.3007      2.00000
    155     -17.2916      2.00000
    156     -17.2818      2.00000
    157     -17.2736      2.00000
    158     -17.2697      2.00000
    159     -17.2655      2.00000
    160     -17.2560      2.00000
    161     -17.2492      2.00000
    162     -17.2460      2.00000
    163     -17.2372      2.00000
    164     -17.2335      2.00000
    165     -17.2254      2.00000
    166     -17.2216      2.00000
    167     -17.2149      2.00000
    168     -17.2077      2.00000
    169     -17.1985      2.00000
    170     -17.1964      2.00000
    171     -17.1870      2.00000
    172     -17.1826      2.00000
    173     -17.1801      2.00000
    174     -17.1717      2.00000
    175     -17.1666      2.00000
    176     -17.1597      2.00000
    177     -17.1535      2.00000
    178     -17.1466      2.00000
    179     -17.1418      2.00000
    180     -17.1390      2.00000
    181     -17.1360      2.00000
    182     -17.1301      2.00000
    183     -17.1274      2.00000
    184     -17.1184      2.00000
    185     -17.1110      2.00000
    186     -17.1053      2.00000
    187     -17.0979      2.00000
    188     -17.0931      2.00000
    189     -17.0888      2.00000
    190     -17.0850      2.00000
    191     -17.0758      2.00000
    192     -17.0721      2.00000
    193     -17.0678      2.00000
    194     -17.0638      2.00000
    195     -17.0600      2.00000
    196     -17.0569      2.00000
    197     -17.0504      2.00000
    198     -17.0468      2.00000
    199     -17.0346      2.00000
    200     -17.0299      2.00000
    201     -17.0271      2.00000
    202     -17.0222      2.00000
    203     -17.0172      2.00000
    204     -17.0078      2.00000
    205     -17.0041      2.00000
    206     -16.9971      2.00000
    207     -16.9951      2.00000
    208     -16.9870      2.00000
    209     -16.9821      2.00000
    210     -16.9762      2.00000
    211     -16.9733      2.00000
    212     -16.9677      2.00000
    213     -16.9627      2.00000
    214     -16.9608      2.00000
    215     -16.9520      2.00000
    216     -16.9455      2.00000
    217     -16.9409      2.00000
    218     -16.9378      2.00000
    219     -16.9343      2.00000
    220     -16.9289      2.00000
    221     -16.9269      2.00000
    222     -16.9234      2.00000
    223     -16.9186      2.00000
    224     -16.9125      2.00000
    225     -16.9039      2.00000
    226     -16.8984      2.00000
    227     -16.8949      2.00000
    228     -16.8873      2.00000
    229     -16.8838      2.00000
    230     -16.8792      2.00000
    231     -16.8724      2.00000
    232     -16.8662      2.00000
    233     -16.8593      2.00000
    234     -16.8542      2.00000
    235     -16.8449      2.00000
    236     -16.8421      2.00000
    237     -16.8344      2.00000
    238     -16.8288      2.00000
    239     -16.8229      2.00000
    240     -16.8181      2.00000
    241     -16.8139      2.00000
    242     -16.8090      2.00000
    243     -16.8003      2.00000
    244     -16.7859      2.00000
    245     -16.7765      2.00000
    246     -16.7665      2.00000
    247     -16.7595      2.00000
    248     -16.7567      2.00000
    249     -16.7477      2.00000
    250     -16.7294      2.00000
    251     -16.7170      2.00000
    252     -16.7085      2.00000
    253     -16.6998      2.00000
    254     -16.6640      2.00000
    255     -16.6509      2.00000
    256     -16.6418      2.00000
    257       4.2483      2.00000
    258       4.6301      2.00000
    259       4.8464      2.00000
    260       5.0319      2.00000
    261       5.1887      2.00000
    262       5.3549      2.00000
    263       5.5174      2.00000
    264       5.7737      2.00000
    265       5.8035      2.00000
    266       6.0017      2.00000
    267       6.0526      2.00000
    268       6.0872      2.00000
    269       6.1700      2.00000
    270       6.1928      2.00000
    271       6.2522      2.00000
    272       6.3033      2.00000
    273       6.3186      2.00000
    274       6.3503      2.00000
    275       6.3664      2.00000
    276       6.4162      2.00000
    277       6.4345      2.00000
    278       6.4621      2.00000
    279       6.5467      2.00000
    280       6.6005      2.00000
    281       6.6393      2.00000
    282       6.6541      2.00000
    283       6.6764      2.00000
    284       6.7133      2.00000
    285       6.7606      2.00000
    286       6.7918      2.00000
    287       6.8093      2.00000
    288       6.8305      2.00000
    289       6.8581      2.00000
    290       6.8789      2.00000
    291       6.9022      2.00000
    292       6.9191      2.00000
    293       6.9456      2.00000
    294       6.9766      2.00000
    295       6.9922      2.00000
    296       7.0296      2.00000
    297       7.0556      2.00000
    298       7.0853      2.00000
    299       7.1251      2.00000
    300       7.1633      2.00000
    301       7.1774      2.00000
    302       7.2090      2.00000
    303       7.2524      2.00000
    304       7.2788      2.00000
    305       7.2965      2.00000
    306       7.3111      2.00000
    307       7.3326      2.00000
    308       7.3625      2.00000
    309       7.3846      2.00000
    310       7.4097      2.00000
    311       7.4309      2.00000
    312       7.4829      2.00000
    313       7.4978      2.00000
    314       7.5129      2.00000
    315       7.5362      2.00000
    316       7.5420      2.00000
    317       7.5727      2.00000
    318       7.6106      2.00000
    319       7.6188      2.00000
    320       7.6524      2.00000
    321       7.6758      2.00000
    322       7.7092      2.00000
    323       7.7319      2.00000
    324       7.7539      2.00000
    325       7.7599      2.00000
    326       7.7920      2.00000
    327       7.8089      2.00000
    328       7.8240      2.00000
    329       7.8431      2.00000
    330       7.8648      2.00000
    331       7.8880      2.00000
    332       7.9190      2.00000
    333       7.9372      2.00000
    334       7.9481      2.00000
    335       7.9687      2.00000
    336       7.9987      2.00000
    337       8.0231      2.00000
    338       8.0506      2.00000
    339       8.0647      2.00000
    340       8.0776      2.00000
    341       8.1114      2.00000
    342       8.1302      2.00000
    343       8.1524      2.00000
    344       8.1686      2.00000
    345       8.1878      2.00000
    346       8.2134      2.00000
    347       8.2357      2.00000
    348       8.2586      2.00000
    349       8.2809      2.00000
    350       8.3156      2.00000
    351       8.3307      2.00000
    352       8.3453      2.00000
    353       8.3740      2.00000
    354       8.3941      2.00000
    355       8.4098      2.00000
    356       8.4625      2.00000
    357       8.4771      2.00000
    358       8.5056      2.00000
    359       8.5238      2.00000
    360       8.5589      2.00000
    361       8.5819      2.00000
    362       8.6050      2.00000
    363       8.6291      2.00000
    364       8.6435      2.00000
    365       8.6877      2.00000
    366       8.7112      2.00000
    367       8.7421      2.00000
    368       8.7696      2.00000
    369       8.8035      2.00000
    370       8.8189      2.00000
    371       8.8499      2.00000
    372       8.8707      2.00000
    373       8.9028      2.00000
    374       8.9113      2.00000
    375       8.9490      2.00000
    376       8.9856      2.00000
    377       9.0297      2.00000
    378       9.0755      2.00000
    379       9.0891      2.00000
    380       9.1311      1.99980
    381       9.1604      1.99620
    382       9.1765      1.98527
    383       9.2068      1.88644
    384       9.2367      1.53737
    385       9.2582      1.10041
    386       9.3002      0.28916
    387       9.3201      0.10433
    388       9.3376      0.03420
    389       9.3573      0.00744
    390       9.3915      0.00027
    391       9.4160      0.00001
    392       9.4321      0.00000
    393       9.4485      0.00000
    394       9.4706      0.00000
    395       9.4994      0.00000
    396       9.5088      0.00000
    397       9.5409      0.00000
    398       9.5738      0.00000
    399       9.5841      0.00000
    400       9.6031      0.00000
    401       9.6405      0.00000
    402       9.6594      0.00000
    403       9.6745      0.00000
    404       9.6985      0.00000
    405       9.7287      0.00000
    406       9.7440      0.00000
    407       9.7624      0.00000
    408       9.7815      0.00000
    409       9.7978      0.00000
    410       9.8078      0.00000
    411       9.8215      0.00000
    412       9.8472      0.00000
    413       9.8751      0.00000
    414       9.8930      0.00000
    415       9.9188      0.00000
    416       9.9333      0.00000
    417       9.9533      0.00000
    418       9.9831      0.00000
    419       9.9944      0.00000
    420      10.0062      0.00000
    421      10.0307      0.00000
    422      10.0618      0.00000
    423      10.0800      0.00000
    424      10.0902      0.00000
    425      10.1100      0.00000
    426      10.1235      0.00000
    427      10.1613      0.00000
    428      10.1789      0.00000
    429      10.2066      0.00000
    430      10.2313      0.00000
    431      10.2482      0.00000
    432      10.2807      0.00000
    433      10.3050      0.00000
    434      10.3100      0.00000
    435      10.3346      0.00000
    436      10.3637      0.00000
    437      10.3748      0.00000
    438      10.3970      0.00000
    439      10.4367      0.00000
    440      10.4590      0.00000
    441      10.4805      0.00000
    442      10.4881      0.00000
    443      10.5027      0.00000
    444      10.5259      0.00000
    445      10.5526      0.00000
    446      10.5816      0.00000
    447      10.5889      0.00000
    448      10.6101      0.00000
    449      10.6271      0.00000
    450      10.6634      0.00000
    451      10.6786      0.00000
    452      10.6991      0.00000
    453      10.7147      0.00000
    454      10.7474      0.00000
    455      10.7693      0.00000
    456      10.7879      0.00000
    457      10.8273      0.00000
    458      10.8515      0.00000
    459      10.8686      0.00000
    460      10.8831      0.00000
    461      10.9170      0.00000
    462      10.9433      0.00000
    463      10.9620      0.00000
    464      10.9809      0.00000

 k-point    35 :      -0.2500    0.2500   -0.4000
  band No.  band energies     occupation 
      1     -45.5192      2.00000
      2     -39.4658      2.00000
      3     -39.4250      2.00000
      4     -39.4088      2.00000
      5     -39.3984      2.00000
      6     -39.3964      2.00000
      7     -39.3865      2.00000
      8     -39.3771      2.00000
      9     -39.3638      2.00000
     10     -39.3590      2.00000
     11     -39.3452      2.00000
     12     -39.3389      2.00000
     13     -39.3348      2.00000
     14     -39.3262      2.00000
     15     -39.3220      2.00000
     16     -39.3093      2.00000
     17     -39.2990      2.00000
     18     -39.2975      2.00000
     19     -39.2912      2.00000
     20     -39.2885      2.00000
     21     -39.2831      2.00000
     22     -39.2739      2.00000
     23     -39.2640      2.00000
     24     -39.2609      2.00000
     25     -39.2474      2.00000
     26     -39.2416      2.00000
     27     -39.2387      2.00000
     28     -39.2364      2.00000
     29     -39.2343      2.00000
     30     -39.2290      2.00000
     31     -39.2237      2.00000
     32     -39.2179      2.00000
     33     -39.2139      2.00000
     34     -39.2045      2.00000
     35     -39.1975      2.00000
     36     -39.1872      2.00000
     37     -39.1797      2.00000
     38     -39.1729      2.00000
     39     -39.1643      2.00000
     40     -39.1556      2.00000
     41     -39.1525      2.00000
     42     -39.1480      2.00000
     43     -39.1450      2.00000
     44     -39.1352      2.00000
     45     -39.1278      2.00000
     46     -39.1237      2.00000
     47     -39.1134      2.00000
     48     -39.1080      2.00000
     49     -39.1042      2.00000
     50     -39.1007      2.00000
     51     -39.0972      2.00000
     52     -39.0933      2.00000
     53     -39.0829      2.00000
     54     -39.0711      2.00000
     55     -39.0642      2.00000
     56     -39.0610      2.00000
     57     -39.0313      2.00000
     58     -39.0256      2.00000
     59     -39.0214      2.00000
     60     -39.0197      2.00000
     61     -39.0159      2.00000
     62     -38.9513      2.00000
     63     -38.9136      2.00000
     64     -38.9133      2.00000
     65     -21.6081      2.00000
     66     -21.5850      2.00000
     67     -21.5569      2.00000
     68     -18.0288      2.00000
     69     -17.9838      2.00000
     70     -17.9746      2.00000
     71     -17.9668      2.00000
     72     -17.9520      2.00000
     73     -17.9388      2.00000
     74     -17.9354      2.00000
     75     -17.9197      2.00000
     76     -17.9137      2.00000
     77     -17.9058      2.00000
     78     -17.8998      2.00000
     79     -17.8855      2.00000
     80     -17.8766      2.00000
     81     -17.8645      2.00000
     82     -17.8571      2.00000
     83     -17.8510      2.00000
     84     -17.8454      2.00000
     85     -17.8346      2.00000
     86     -17.8275      2.00000
     87     -17.8251      2.00000
     88     -17.8099      2.00000
     89     -17.8087      2.00000
     90     -17.8024      2.00000
     91     -17.7923      2.00000
     92     -17.7874      2.00000
     93     -17.7807      2.00000
     94     -17.7730      2.00000
     95     -17.7677      2.00000
     96     -17.7618      2.00000
     97     -17.7578      2.00000
     98     -17.7479      2.00000
     99     -17.7439      2.00000
    100     -17.7384      2.00000
    101     -17.7315      2.00000
    102     -17.7271      2.00000
    103     -17.7200      2.00000
    104     -17.7075      2.00000
    105     -17.7033      2.00000
    106     -17.6972      2.00000
    107     -17.6925      2.00000
    108     -17.6869      2.00000
    109     -17.6720      2.00000
    110     -17.6651      2.00000
    111     -17.6534      2.00000
    112     -17.6494      2.00000
    113     -17.6412      2.00000
    114     -17.6327      2.00000
    115     -17.6267      2.00000
    116     -17.6161      2.00000
    117     -17.6059      2.00000
    118     -17.5995      2.00000
    119     -17.5905      2.00000
    120     -17.5779      2.00000
    121     -17.5668      2.00000
    122     -17.5587      2.00000
    123     -17.5373      2.00000
    124     -17.5304      2.00000
    125     -17.5187      2.00000
    126     -17.5102      2.00000
    127     -17.5036      2.00000
    128     -17.4882      2.00000
    129     -17.4805      2.00000
    130     -17.4685      2.00000
    131     -17.4597      2.00000
    132     -17.4529      2.00000
    133     -17.4465      2.00000
    134     -17.4383      2.00000
    135     -17.4330      2.00000
    136     -17.4236      2.00000
    137     -17.4178      2.00000
    138     -17.4132      2.00000
    139     -17.4000      2.00000
    140     -17.3914      2.00000
    141     -17.3867      2.00000
    142     -17.3770      2.00000
    143     -17.3704      2.00000
    144     -17.3664      2.00000
    145     -17.3583      2.00000
    146     -17.3523      2.00000
    147     -17.3460      2.00000
    148     -17.3388      2.00000
    149     -17.3285      2.00000
    150     -17.3226      2.00000
    151     -17.3185      2.00000
    152     -17.3083      2.00000
    153     -17.3065      2.00000
    154     -17.3007      2.00000
    155     -17.2900      2.00000
    156     -17.2848      2.00000
    157     -17.2756      2.00000
    158     -17.2705      2.00000
    159     -17.2646      2.00000
    160     -17.2573      2.00000
    161     -17.2512      2.00000
    162     -17.2469      2.00000
    163     -17.2396      2.00000
    164     -17.2362      2.00000
    165     -17.2279      2.00000
    166     -17.2235      2.00000
    167     -17.2170      2.00000
    168     -17.2104      2.00000
    169     -17.2023      2.00000
    170     -17.1976      2.00000
    171     -17.1933      2.00000
    172     -17.1823      2.00000
    173     -17.1767      2.00000
    174     -17.1699      2.00000
    175     -17.1658      2.00000
    176     -17.1602      2.00000
    177     -17.1559      2.00000
    178     -17.1512      2.00000
    179     -17.1416      2.00000
    180     -17.1377      2.00000
    181     -17.1346      2.00000
    182     -17.1268      2.00000
    183     -17.1212      2.00000
    184     -17.1179      2.00000
    185     -17.1123      2.00000
    186     -17.1083      2.00000
    187     -17.1041      2.00000
    188     -17.0967      2.00000
    189     -17.0939      2.00000
    190     -17.0851      2.00000
    191     -17.0782      2.00000
    192     -17.0722      2.00000
    193     -17.0676      2.00000
    194     -17.0593      2.00000
    195     -17.0565      2.00000
    196     -17.0508      2.00000
    197     -17.0463      2.00000
    198     -17.0420      2.00000
    199     -17.0375      2.00000
    200     -17.0306      2.00000
    201     -17.0256      2.00000
    202     -17.0171      2.00000
    203     -17.0154      2.00000
    204     -17.0082      2.00000
    205     -17.0045      2.00000
    206     -17.0003      2.00000
    207     -16.9942      2.00000
    208     -16.9879      2.00000
    209     -16.9842      2.00000
    210     -16.9797      2.00000
    211     -16.9723      2.00000
    212     -16.9667      2.00000
    213     -16.9656      2.00000
    214     -16.9581      2.00000
    215     -16.9551      2.00000
    216     -16.9493      2.00000
    217     -16.9416      2.00000
    218     -16.9363      2.00000
    219     -16.9340      2.00000
    220     -16.9277      2.00000
    221     -16.9218      2.00000
    222     -16.9199      2.00000
    223     -16.9124      2.00000
    224     -16.9099      2.00000
    225     -16.9052      2.00000
    226     -16.9006      2.00000
    227     -16.8975      2.00000
    228     -16.8918      2.00000
    229     -16.8853      2.00000
    230     -16.8805      2.00000
    231     -16.8710      2.00000
    232     -16.8640      2.00000
    233     -16.8593      2.00000
    234     -16.8527      2.00000
    235     -16.8448      2.00000
    236     -16.8427      2.00000
    237     -16.8360      2.00000
    238     -16.8284      2.00000
    239     -16.8222      2.00000
    240     -16.8176      2.00000
    241     -16.8119      2.00000
    242     -16.8105      2.00000
    243     -16.8011      2.00000
    244     -16.7836      2.00000
    245     -16.7762      2.00000
    246     -16.7691      2.00000
    247     -16.7640      2.00000
    248     -16.7537      2.00000
    249     -16.7499      2.00000
    250     -16.7305      2.00000
    251     -16.7155      2.00000
    252     -16.7086      2.00000
    253     -16.6999      2.00000
    254     -16.6623      2.00000
    255     -16.6513      2.00000
    256     -16.6422      2.00000
    257       4.2482      2.00000
    258       4.6306      2.00000
    259       4.8460      2.00000
    260       5.0316      2.00000
    261       5.1880      2.00000
    262       5.3542      2.00000
    263       5.5188      2.00000
    264       5.7841      2.00000
    265       5.7988      2.00000
    266       6.0062      2.00000
    267       6.0362      2.00000
    268       6.1132      2.00000
    269       6.1375      2.00000
    270       6.2058      2.00000
    271       6.2597      2.00000
    272       6.2887      2.00000
    273       6.3173      2.00000
    274       6.3374      2.00000
    275       6.3766      2.00000
    276       6.4097      2.00000
    277       6.4382      2.00000
    278       6.4898      2.00000
    279       6.5564      2.00000
    280       6.5994      2.00000
    281       6.6322      2.00000
    282       6.6432      2.00000
    283       6.6687      2.00000
    284       6.7056      2.00000
    285       6.7716      2.00000
    286       6.7895      2.00000
    287       6.8127      2.00000
    288       6.8368      2.00000
    289       6.8534      2.00000
    290       6.8874      2.00000
    291       6.9031      2.00000
    292       6.9190      2.00000
    293       6.9392      2.00000
    294       6.9728      2.00000
    295       6.9935      2.00000
    296       7.0084      2.00000
    297       7.0543      2.00000
    298       7.0985      2.00000
    299       7.1424      2.00000
    300       7.1576      2.00000
    301       7.1733      2.00000
    302       7.2186      2.00000
    303       7.2324      2.00000
    304       7.2600      2.00000
    305       7.2919      2.00000
    306       7.3050      2.00000
    307       7.3285      2.00000
    308       7.3587      2.00000
    309       7.3819      2.00000
    310       7.4013      2.00000
    311       7.4358      2.00000
    312       7.4626      2.00000
    313       7.4938      2.00000
    314       7.5232      2.00000
    315       7.5554      2.00000
    316       7.5706      2.00000
    317       7.5799      2.00000
    318       7.6195      2.00000
    319       7.6369      2.00000
    320       7.6560      2.00000
    321       7.6612      2.00000
    322       7.6915      2.00000
    323       7.7097      2.00000
    324       7.7487      2.00000
    325       7.7775      2.00000
    326       7.7948      2.00000
    327       7.8290      2.00000
    328       7.8358      2.00000
    329       7.8684      2.00000
    330       7.8818      2.00000
    331       7.8965      2.00000
    332       7.9117      2.00000
    333       7.9410      2.00000
    334       7.9536      2.00000
    335       7.9667      2.00000
    336       7.9777      2.00000
    337       8.0160      2.00000
    338       8.0339      2.00000
    339       8.0560      2.00000
    340       8.0768      2.00000
    341       8.1002      2.00000
    342       8.1238      2.00000
    343       8.1493      2.00000
    344       8.1658      2.00000
    345       8.1874      2.00000
    346       8.2242      2.00000
    347       8.2608      2.00000
    348       8.2717      2.00000
    349       8.2880      2.00000
    350       8.3158      2.00000
    351       8.3419      2.00000
    352       8.3575      2.00000
    353       8.3683      2.00000
    354       8.4055      2.00000
    355       8.4252      2.00000
    356       8.4484      2.00000
    357       8.4673      2.00000
    358       8.5001      2.00000
    359       8.5143      2.00000
    360       8.5593      2.00000
    361       8.5666      2.00000
    362       8.6068      2.00000
    363       8.6471      2.00000
    364       8.6621      2.00000
    365       8.6694      2.00000
    366       8.6972      2.00000
    367       8.7442      2.00000
    368       8.7559      2.00000
    369       8.7877      2.00000
    370       8.8131      2.00000
    371       8.8307      2.00000
    372       8.8756      2.00000
    373       8.8895      2.00000
    374       8.9148      2.00000
    375       8.9354      2.00000
    376       8.9901      2.00000
    377       9.0312      2.00000
    378       9.0719      2.00000
    379       9.0890      2.00000
    380       9.1421      1.99935
    381       9.1736      1.98831
    382       9.2015      1.91671
    383       9.2050      1.89757
    384       9.2249      1.71452
    385       9.2798      0.62929
    386       9.2916      0.41396
    387       9.3069      0.21139
    388       9.3286      0.06226
    389       9.3534      0.01033
    390       9.3792      0.00098
    391       9.4015      0.00009
    392       9.4421      0.00000
    393       9.4625      0.00000
    394       9.4751      0.00000
    395       9.4930      0.00000
    396       9.5111      0.00000
    397       9.5253      0.00000
    398       9.5721      0.00000
    399       9.5828      0.00000
    400       9.6002      0.00000
    401       9.6103      0.00000
    402       9.6447      0.00000
    403       9.6856      0.00000
    404       9.7056      0.00000
    405       9.7317      0.00000
    406       9.7459      0.00000
    407       9.7549      0.00000
    408       9.7663      0.00000
    409       9.8004      0.00000
    410       9.8270      0.00000
    411       9.8325      0.00000
    412       9.8521      0.00000
    413       9.8701      0.00000
    414       9.8877      0.00000
    415       9.9044      0.00000
    416       9.9252      0.00000
    417       9.9389      0.00000
    418       9.9641      0.00000
    419      10.0039      0.00000
    420      10.0284      0.00000
    421      10.0343      0.00000
    422      10.0625      0.00000
    423      10.0893      0.00000
    424      10.1044      0.00000
    425      10.1360      0.00000
    426      10.1472      0.00000
    427      10.1793      0.00000
    428      10.2004      0.00000
    429      10.2196      0.00000
    430      10.2348      0.00000
    431      10.2777      0.00000
    432      10.2896      0.00000
    433      10.3042      0.00000
    434      10.3251      0.00000
    435      10.3614      0.00000
    436      10.3697      0.00000
    437      10.3761      0.00000
    438      10.4102      0.00000
    439      10.4261      0.00000
    440      10.4401      0.00000
    441      10.4567      0.00000
    442      10.4852      0.00000
    443      10.5045      0.00000
    444      10.5389      0.00000
    445      10.5431      0.00000
    446      10.5676      0.00000
    447      10.5804      0.00000
    448      10.6111      0.00000
    449      10.6252      0.00000
    450      10.6379      0.00000
    451      10.6647      0.00000
    452      10.6918      0.00000
    453      10.7012      0.00000
    454      10.7458      0.00000
    455      10.7734      0.00000
    456      10.7915      0.00000
    457      10.8063      0.00000
    458      10.8168      0.00000
    459      10.8445      0.00000
    460      10.8618      0.00000
    461      10.9091      0.00000
    462      10.9247      0.00000
    463      10.9437      0.00000
    464      11.0125      0.00000

 k-point    36 :       0.2500   -0.2500   -0.4000
  band No.  band energies     occupation 
      1     -45.5192      2.00000
      2     -39.4657      2.00000
      3     -39.4252      2.00000
      4     -39.4083      2.00000
      5     -39.3977      2.00000
      6     -39.3965      2.00000
      7     -39.3884      2.00000
      8     -39.3763      2.00000
      9     -39.3644      2.00000
     10     -39.3573      2.00000
     11     -39.3460      2.00000
     12     -39.3398      2.00000
     13     -39.3331      2.00000
     14     -39.3273      2.00000
     15     -39.3214      2.00000
     16     -39.3093      2.00000
     17     -39.3017      2.00000
     18     -39.2957      2.00000
     19     -39.2913      2.00000
     20     -39.2888      2.00000
     21     -39.2823      2.00000
     22     -39.2720      2.00000
     23     -39.2662      2.00000
     24     -39.2604      2.00000
     25     -39.2472      2.00000
     26     -39.2421      2.00000
     27     -39.2383      2.00000
     28     -39.2370      2.00000
     29     -39.2356      2.00000
     30     -39.2276      2.00000
     31     -39.2258      2.00000
     32     -39.2166      2.00000
     33     -39.2117      2.00000
     34     -39.2039      2.00000
     35     -39.1982      2.00000
     36     -39.1891      2.00000
     37     -39.1782      2.00000
     38     -39.1741      2.00000
     39     -39.1639      2.00000
     40     -39.1550      2.00000
     41     -39.1524      2.00000
     42     -39.1490      2.00000
     43     -39.1446      2.00000
     44     -39.1355      2.00000
     45     -39.1280      2.00000
     46     -39.1234      2.00000
     47     -39.1136      2.00000
     48     -39.1074      2.00000
     49     -39.1044      2.00000
     50     -39.1002      2.00000
     51     -39.0979      2.00000
     52     -39.0932      2.00000
     53     -39.0829      2.00000
     54     -39.0711      2.00000
     55     -39.0642      2.00000
     56     -39.0610      2.00000
     57     -39.0313      2.00000
     58     -39.0256      2.00000
     59     -39.0214      2.00000
     60     -39.0197      2.00000
     61     -39.0159      2.00000
     62     -38.9513      2.00000
     63     -38.9136      2.00000
     64     -38.9133      2.00000
     65     -21.6081      2.00000
     66     -21.5850      2.00000
     67     -21.5569      2.00000
     68     -18.0287      2.00000
     69     -17.9828      2.00000
     70     -17.9775      2.00000
     71     -17.9675      2.00000
     72     -17.9495      2.00000
     73     -17.9419      2.00000
     74     -17.9297      2.00000
     75     -17.9227      2.00000
     76     -17.9125      2.00000
     77     -17.9041      2.00000
     78     -17.8979      2.00000
     79     -17.8862      2.00000
     80     -17.8808      2.00000
     81     -17.8660      2.00000
     82     -17.8593      2.00000
     83     -17.8536      2.00000
     84     -17.8412      2.00000
     85     -17.8350      2.00000
     86     -17.8287      2.00000
     87     -17.8187      2.00000
     88     -17.8144      2.00000
     89     -17.8109      2.00000
     90     -17.8012      2.00000
     91     -17.7915      2.00000
     92     -17.7831      2.00000
     93     -17.7783      2.00000
     94     -17.7727      2.00000
     95     -17.7671      2.00000
     96     -17.7636      2.00000
     97     -17.7579      2.00000
     98     -17.7496      2.00000
     99     -17.7465      2.00000
    100     -17.7384      2.00000
    101     -17.7322      2.00000
    102     -17.7229      2.00000
    103     -17.7170      2.00000
    104     -17.7124      2.00000
    105     -17.7016      2.00000
    106     -17.6948      2.00000
    107     -17.6901      2.00000
    108     -17.6808      2.00000
    109     -17.6739      2.00000
    110     -17.6631      2.00000
    111     -17.6590      2.00000
    112     -17.6538      2.00000
    113     -17.6457      2.00000
    114     -17.6339      2.00000
    115     -17.6280      2.00000
    116     -17.6163      2.00000
    117     -17.6101      2.00000
    118     -17.5997      2.00000
    119     -17.5948      2.00000
    120     -17.5677      2.00000
    121     -17.5632      2.00000
    122     -17.5571      2.00000
    123     -17.5401      2.00000
    124     -17.5374      2.00000
    125     -17.5209      2.00000
    126     -17.5083      2.00000
    127     -17.4929      2.00000
    128     -17.4876      2.00000
    129     -17.4798      2.00000
    130     -17.4665      2.00000
    131     -17.4611      2.00000
    132     -17.4563      2.00000
    133     -17.4445      2.00000
    134     -17.4411      2.00000
    135     -17.4346      2.00000
    136     -17.4214      2.00000
    137     -17.4130      2.00000
    138     -17.4110      2.00000
    139     -17.4041      2.00000
    140     -17.3917      2.00000
    141     -17.3826      2.00000
    142     -17.3793      2.00000
    143     -17.3748      2.00000
    144     -17.3660      2.00000
    145     -17.3564      2.00000
    146     -17.3509      2.00000
    147     -17.3473      2.00000
    148     -17.3382      2.00000
    149     -17.3309      2.00000
    150     -17.3232      2.00000
    151     -17.3165      2.00000
    152     -17.3110      2.00000
    153     -17.3055      2.00000
    154     -17.3005      2.00000
    155     -17.2970      2.00000
    156     -17.2833      2.00000
    157     -17.2815      2.00000
    158     -17.2681      2.00000
    159     -17.2646      2.00000
    160     -17.2571      2.00000
    161     -17.2548      2.00000
    162     -17.2473      2.00000
    163     -17.2399      2.00000
    164     -17.2368      2.00000
    165     -17.2282      2.00000
    166     -17.2266      2.00000
    167     -17.2123      2.00000
    168     -17.2081      2.00000
    169     -17.2019      2.00000
    170     -17.1941      2.00000
    171     -17.1897      2.00000
    172     -17.1830      2.00000
    173     -17.1782      2.00000
    174     -17.1701      2.00000
    175     -17.1646      2.00000
    176     -17.1563      2.00000
    177     -17.1518      2.00000
    178     -17.1494      2.00000
    179     -17.1407      2.00000
    180     -17.1367      2.00000
    181     -17.1332      2.00000
    182     -17.1303      2.00000
    183     -17.1251      2.00000
    184     -17.1184      2.00000
    185     -17.1133      2.00000
    186     -17.1085      2.00000
    187     -17.1019      2.00000
    188     -17.0977      2.00000
    189     -17.0907      2.00000
    190     -17.0829      2.00000
    191     -17.0810      2.00000
    192     -17.0705      2.00000
    193     -17.0687      2.00000
    194     -17.0633      2.00000
    195     -17.0599      2.00000
    196     -17.0524      2.00000
    197     -17.0495      2.00000
    198     -17.0391      2.00000
    199     -17.0344      2.00000
    200     -17.0316      2.00000
    201     -17.0260      2.00000
    202     -17.0163      2.00000
    203     -17.0141      2.00000
    204     -17.0078      2.00000
    205     -17.0050      2.00000
    206     -17.0001      2.00000
    207     -16.9947      2.00000
    208     -16.9902      2.00000
    209     -16.9862      2.00000
    210     -16.9783      2.00000
    211     -16.9739      2.00000
    212     -16.9671      2.00000
    213     -16.9624      2.00000
    214     -16.9562      2.00000
    215     -16.9522      2.00000
    216     -16.9485      2.00000
    217     -16.9431      2.00000
    218     -16.9398      2.00000
    219     -16.9323      2.00000
    220     -16.9299      2.00000
    221     -16.9223      2.00000
    222     -16.9170      2.00000
    223     -16.9144      2.00000
    224     -16.9082      2.00000
    225     -16.9070      2.00000
    226     -16.9018      2.00000
    227     -16.8946      2.00000
    228     -16.8900      2.00000
    229     -16.8859      2.00000
    230     -16.8811      2.00000
    231     -16.8724      2.00000
    232     -16.8652      2.00000
    233     -16.8608      2.00000
    234     -16.8507      2.00000
    235     -16.8482      2.00000
    236     -16.8426      2.00000
    237     -16.8367      2.00000
    238     -16.8305      2.00000
    239     -16.8209      2.00000
    240     -16.8183      2.00000
    241     -16.8139      2.00000
    242     -16.8053      2.00000
    243     -16.8009      2.00000
    244     -16.7824      2.00000
    245     -16.7766      2.00000
    246     -16.7652      2.00000
    247     -16.7623      2.00000
    248     -16.7537      2.00000
    249     -16.7506      2.00000
    250     -16.7315      2.00000
    251     -16.7185      2.00000
    252     -16.7097      2.00000
    253     -16.6987      2.00000
    254     -16.6639      2.00000
    255     -16.6495      2.00000
    256     -16.6421      2.00000
    257       4.2479      2.00000
    258       4.6313      2.00000
    259       4.8455      2.00000
    260       5.0304      2.00000
    261       5.1870      2.00000
    262       5.3551      2.00000
    263       5.5229      2.00000
    264       5.7807      2.00000
    265       5.7945      2.00000
    266       6.0121      2.00000
    267       6.0435      2.00000
    268       6.1110      2.00000
    269       6.1366      2.00000
    270       6.2075      2.00000
    271       6.2593      2.00000
    272       6.2934      2.00000
    273       6.3174      2.00000
    274       6.3416      2.00000
    275       6.3697      2.00000
    276       6.4178      2.00000
    277       6.4367      2.00000
    278       6.4731      2.00000
    279       6.5488      2.00000
    280       6.6062      2.00000
    281       6.6263      2.00000
    282       6.6540      2.00000
    283       6.6610      2.00000
    284       6.7044      2.00000
    285       6.7783      2.00000
    286       6.7969      2.00000
    287       6.8206      2.00000
    288       6.8365      2.00000
    289       6.8489      2.00000
    290       6.8779      2.00000
    291       6.8894      2.00000
    292       6.9235      2.00000
    293       6.9371      2.00000
    294       6.9708      2.00000
    295       6.9894      2.00000
    296       7.0144      2.00000
    297       7.0287      2.00000
    298       7.0713      2.00000
    299       7.1215      2.00000
    300       7.1604      2.00000
    301       7.1988      2.00000
    302       7.2287      2.00000
    303       7.2607      2.00000
    304       7.2856      2.00000
    305       7.2986      2.00000
    306       7.3050      2.00000
    307       7.3534      2.00000
    308       7.3705      2.00000
    309       7.3853      2.00000
    310       7.4136      2.00000
    311       7.4391      2.00000
    312       7.4566      2.00000
    313       7.4782      2.00000
    314       7.5149      2.00000
    315       7.5497      2.00000
    316       7.5592      2.00000
    317       7.5761      2.00000
    318       7.5999      2.00000
    319       7.6361      2.00000
    320       7.6622      2.00000
    321       7.6810      2.00000
    322       7.7184      2.00000
    323       7.7307      2.00000
    324       7.7509      2.00000
    325       7.7687      2.00000
    326       7.7846      2.00000
    327       7.8092      2.00000
    328       7.8305      2.00000
    329       7.8506      2.00000
    330       7.8703      2.00000
    331       7.8977      2.00000
    332       7.9131      2.00000
    333       7.9378      2.00000
    334       7.9491      2.00000
    335       7.9677      2.00000
    336       7.9834      2.00000
    337       8.0045      2.00000
    338       8.0293      2.00000
    339       8.0429      2.00000
    340       8.0778      2.00000
    341       8.0891      2.00000
    342       8.1296      2.00000
    343       8.1442      2.00000
    344       8.1623      2.00000
    345       8.1947      2.00000
    346       8.2088      2.00000
    347       8.2327      2.00000
    348       8.2879      2.00000
    349       8.3114      2.00000
    350       8.3181      2.00000
    351       8.3491      2.00000
    352       8.3654      2.00000
    353       8.3872      2.00000
    354       8.4063      2.00000
    355       8.4288      2.00000
    356       8.4670      2.00000
    357       8.4798      2.00000
    358       8.4979      2.00000
    359       8.5235      2.00000
    360       8.5627      2.00000
    361       8.5792      2.00000
    362       8.6039      2.00000
    363       8.6157      2.00000
    364       8.6653      2.00000
    365       8.6836      2.00000
    366       8.7087      2.00000
    367       8.7297      2.00000
    368       8.7549      2.00000
    369       8.7808      2.00000
    370       8.8040      2.00000
    371       8.8404      2.00000
    372       8.8597      2.00000
    373       8.8851      2.00000
    374       8.9164      2.00000
    375       8.9371      2.00000
    376       9.0013      2.00000
    377       9.0384      2.00000
    378       9.0590      2.00000
    379       9.0876      2.00000
    380       9.1078      1.99999
    381       9.1525      1.99817
    382       9.1779      1.98357
    383       9.2203      1.76931
    384       9.2489      1.30331
    385       9.2683      0.87479
    386       9.2864      0.50352
    387       9.2996      0.29679
    388       9.3412      0.02631
    389       9.3557      0.00851
    390       9.3799      0.00091
    391       9.4144      0.00002
    392       9.4242      0.00000
    393       9.4555      0.00000
    394       9.4757      0.00000
    395       9.4983      0.00000
    396       9.5058      0.00000
    397       9.5267      0.00000
    398       9.5603      0.00000
    399       9.5842      0.00000
    400       9.6057      0.00000
    401       9.6214      0.00000
    402       9.6471      0.00000
    403       9.6808      0.00000
    404       9.6886      0.00000
    405       9.7036      0.00000
    406       9.7245      0.00000
    407       9.7469      0.00000
    408       9.7656      0.00000
    409       9.7800      0.00000
    410       9.8125      0.00000
    411       9.8344      0.00000
    412       9.8476      0.00000
    413       9.8769      0.00000
    414       9.8911      0.00000
    415       9.9038      0.00000
    416       9.9402      0.00000
    417       9.9516      0.00000
    418       9.9756      0.00000
    419      10.0079      0.00000
    420      10.0358      0.00000
    421      10.0588      0.00000
    422      10.0764      0.00000
    423      10.0930      0.00000
    424      10.1216      0.00000
    425      10.1344      0.00000
    426      10.1557      0.00000
    427      10.1917      0.00000
    428      10.1999      0.00000
    429      10.2412      0.00000
    430      10.2496      0.00000
    431      10.2735      0.00000
    432      10.2918      0.00000
    433      10.3039      0.00000
    434      10.3210      0.00000
    435      10.3449      0.00000
    436      10.3569      0.00000
    437      10.3850      0.00000
    438      10.4111      0.00000
    439      10.4283      0.00000
    440      10.4641      0.00000
    441      10.4799      0.00000
    442      10.4907      0.00000
    443      10.5189      0.00000
    444      10.5506      0.00000
    445      10.5643      0.00000
    446      10.5731      0.00000
    447      10.5868      0.00000
    448      10.6028      0.00000
    449      10.6124      0.00000
    450      10.6399      0.00000
    451      10.6640      0.00000
    452      10.6899      0.00000
    453      10.7132      0.00000
    454      10.7395      0.00000
    455      10.7598      0.00000
    456      10.7740      0.00000
    457      10.7828      0.00000
    458      10.8079      0.00000
    459      10.8489      0.00000
    460      10.8768      0.00000
    461      10.8943      0.00000
    462      10.9024      0.00000
    463      10.9433      0.00000
    464      10.9815      0.00000

 k-point    37 :       0.5000    0.2500    0.4000
  band No.  band energies     occupation 
      1     -45.5192      2.00000
      2     -39.4656      2.00000
      3     -39.4244      2.00000
      4     -39.4091      2.00000
      5     -39.3992      2.00000
      6     -39.3953      2.00000
      7     -39.3883      2.00000
      8     -39.3761      2.00000
      9     -39.3656      2.00000
     10     -39.3565      2.00000
     11     -39.3467      2.00000
     12     -39.3396      2.00000
     13     -39.3312      2.00000
     14     -39.3278      2.00000
     15     -39.3230      2.00000
     16     -39.3092      2.00000
     17     -39.3010      2.00000
     18     -39.2952      2.00000
     19     -39.2916      2.00000
     20     -39.2887      2.00000
     21     -39.2828      2.00000
     22     -39.2712      2.00000
     23     -39.2667      2.00000
     24     -39.2600      2.00000
     25     -39.2473      2.00000
     26     -39.2412      2.00000
     27     -39.2387      2.00000
     28     -39.2372      2.00000
     29     -39.2338      2.00000
     30     -39.2293      2.00000
     31     -39.2242      2.00000
     32     -39.2170      2.00000
     33     -39.2132      2.00000
     34     -39.2042      2.00000
     35     -39.1986      2.00000
     36     -39.1882      2.00000
     37     -39.1792      2.00000
     38     -39.1730      2.00000
     39     -39.1643      2.00000
     40     -39.1555      2.00000
     41     -39.1529      2.00000
     42     -39.1480      2.00000
     43     -39.1446      2.00000
     44     -39.1365      2.00000
     45     -39.1271      2.00000
     46     -39.1234      2.00000
     47     -39.1136      2.00000
     48     -39.1062      2.00000
     49     -39.1049      2.00000
     50     -39.1005      2.00000
     51     -39.0983      2.00000
     52     -39.0929      2.00000
     53     -39.0831      2.00000
     54     -39.0709      2.00000
     55     -39.0643      2.00000
     56     -39.0609      2.00000
     57     -39.0313      2.00000
     58     -39.0256      2.00000
     59     -39.0213      2.00000
     60     -39.0198      2.00000
     61     -39.0159      2.00000
     62     -38.9513      2.00000
     63     -38.9136      2.00000
     64     -38.9133      2.00000
     65     -21.6081      2.00000
     66     -21.5850      2.00000
     67     -21.5569      2.00000
     68     -18.0275      2.00000
     69     -17.9795      2.00000
     70     -17.9711      2.00000
     71     -17.9646      2.00000
     72     -17.9484      2.00000
     73     -17.9358      2.00000
     74     -17.9264      2.00000
     75     -17.9223      2.00000
     76     -17.9114      2.00000
     77     -17.9030      2.00000
     78     -17.8942      2.00000
     79     -17.8846      2.00000
     80     -17.8771      2.00000
     81     -17.8717      2.00000
     82     -17.8661      2.00000
     83     -17.8559      2.00000
     84     -17.8436      2.00000
     85     -17.8363      2.00000
     86     -17.8277      2.00000
     87     -17.8237      2.00000
     88     -17.8166      2.00000
     89     -17.8060      2.00000
     90     -17.8006      2.00000
     91     -17.7952      2.00000
     92     -17.7845      2.00000
     93     -17.7825      2.00000
     94     -17.7787      2.00000
     95     -17.7688      2.00000
     96     -17.7658      2.00000
     97     -17.7568      2.00000
     98     -17.7522      2.00000
     99     -17.7442      2.00000
    100     -17.7363      2.00000
    101     -17.7337      2.00000
    102     -17.7265      2.00000
    103     -17.7193      2.00000
    104     -17.7125      2.00000
    105     -17.7041      2.00000
    106     -17.6905      2.00000
    107     -17.6785      2.00000
    108     -17.6778      2.00000
    109     -17.6739      2.00000
    110     -17.6654      2.00000
    111     -17.6540      2.00000
    112     -17.6429      2.00000
    113     -17.6363      2.00000
    114     -17.6245      2.00000
    115     -17.6194      2.00000
    116     -17.6150      2.00000
    117     -17.6055      2.00000
    118     -17.6001      2.00000
    119     -17.5971      2.00000
    120     -17.5819      2.00000
    121     -17.5771      2.00000
    122     -17.5680      2.00000
    123     -17.5601      2.00000
    124     -17.5491      2.00000
    125     -17.5403      2.00000
    126     -17.5194      2.00000
    127     -17.5044      2.00000
    128     -17.4912      2.00000
    129     -17.4854      2.00000
    130     -17.4797      2.00000
    131     -17.4629      2.00000
    132     -17.4582      2.00000
    133     -17.4471      2.00000
    134     -17.4391      2.00000
    135     -17.4345      2.00000
    136     -17.4269      2.00000
    137     -17.4147      2.00000
    138     -17.4108      2.00000
    139     -17.4023      2.00000
    140     -17.3945      2.00000
    141     -17.3799      2.00000
    142     -17.3764      2.00000
    143     -17.3704      2.00000
    144     -17.3650      2.00000
    145     -17.3559      2.00000
    146     -17.3506      2.00000
    147     -17.3420      2.00000
    148     -17.3294      2.00000
    149     -17.3258      2.00000
    150     -17.3233      2.00000
    151     -17.3121      2.00000
    152     -17.3091      2.00000
    153     -17.3027      2.00000
    154     -17.2918      2.00000
    155     -17.2847      2.00000
    156     -17.2828      2.00000
    157     -17.2736      2.00000
    158     -17.2671      2.00000
    159     -17.2644      2.00000
    160     -17.2541      2.00000
    161     -17.2488      2.00000
    162     -17.2435      2.00000
    163     -17.2390      2.00000
    164     -17.2279      2.00000
    165     -17.2250      2.00000
    166     -17.2190      2.00000
    167     -17.2113      2.00000
    168     -17.2037      2.00000
    169     -17.1976      2.00000
    170     -17.1885      2.00000
    171     -17.1870      2.00000
    172     -17.1777      2.00000
    173     -17.1748      2.00000
    174     -17.1707      2.00000
    175     -17.1642      2.00000
    176     -17.1572      2.00000
    177     -17.1517      2.00000
    178     -17.1498      2.00000
    179     -17.1434      2.00000
    180     -17.1390      2.00000
    181     -17.1338      2.00000
    182     -17.1274      2.00000
    183     -17.1193      2.00000
    184     -17.1143      2.00000
    185     -17.1111      2.00000
    186     -17.1072      2.00000
    187     -17.0995      2.00000
    188     -17.0955      2.00000
    189     -17.0907      2.00000
    190     -17.0859      2.00000
    191     -17.0814      2.00000
    192     -17.0758      2.00000
    193     -17.0723      2.00000
    194     -17.0672      2.00000
    195     -17.0596      2.00000
    196     -17.0548      2.00000
    197     -17.0450      2.00000
    198     -17.0397      2.00000
    199     -17.0355      2.00000
    200     -17.0347      2.00000
    201     -17.0262      2.00000
    202     -17.0217      2.00000
    203     -17.0164      2.00000
    204     -17.0082      2.00000
    205     -17.0025      2.00000
    206     -16.9981      2.00000
    207     -16.9926      2.00000
    208     -16.9887      2.00000
    209     -16.9840      2.00000
    210     -16.9799      2.00000
    211     -16.9751      2.00000
    212     -16.9686      2.00000
    213     -16.9643      2.00000
    214     -16.9611      2.00000
    215     -16.9523      2.00000
    216     -16.9481      2.00000
    217     -16.9432      2.00000
    218     -16.9388      2.00000
    219     -16.9349      2.00000
    220     -16.9316      2.00000
    221     -16.9246      2.00000
    222     -16.9225      2.00000
    223     -16.9140      2.00000
    224     -16.9104      2.00000
    225     -16.9055      2.00000
    226     -16.9017      2.00000
    227     -16.8968      2.00000
    228     -16.8910      2.00000
    229     -16.8845      2.00000
    230     -16.8799      2.00000
    231     -16.8695      2.00000
    232     -16.8649      2.00000
    233     -16.8612      2.00000
    234     -16.8520      2.00000
    235     -16.8487      2.00000
    236     -16.8449      2.00000
    237     -16.8370      2.00000
    238     -16.8309      2.00000
    239     -16.8222      2.00000
    240     -16.8168      2.00000
    241     -16.8111      2.00000
    242     -16.8082      2.00000
    243     -16.8039      2.00000
    244     -16.7857      2.00000
    245     -16.7785      2.00000
    246     -16.7656      2.00000
    247     -16.7615      2.00000
    248     -16.7546      2.00000
    249     -16.7496      2.00000
    250     -16.7316      2.00000
    251     -16.7183      2.00000
    252     -16.7093      2.00000
    253     -16.6985      2.00000
    254     -16.6636      2.00000
    255     -16.6502      2.00000
    256     -16.6441      2.00000
    257       4.4751      2.00000
    258       4.4890      2.00000
    259       4.8470      2.00000
    260       4.8598      2.00000
    261       5.2247      2.00000
    262       5.2380      2.00000
    263       5.5313      2.00000
    264       5.5422      2.00000
    265       6.2032      2.00000
    266       6.2086      2.00000
    267       6.2230      2.00000
    268       6.2356      2.00000
    269       6.2528      2.00000
    270       6.2741      2.00000
    271       6.2879      2.00000
    272       6.3140      2.00000
    273       6.3368      2.00000
    274       6.3663      2.00000
    275       6.3820      2.00000
    276       6.4034      2.00000
    277       6.4545      2.00000
    278       6.4837      2.00000
    279       6.5092      2.00000
    280       6.5236      2.00000
    281       6.5380      2.00000
    282       6.5540      2.00000
    283       6.5684      2.00000
    284       6.6158      2.00000
    285       6.6211      2.00000
    286       6.6379      2.00000
    287       6.6511      2.00000
    288       6.6749      2.00000
    289       6.8335      2.00000
    290       6.9104      2.00000
    291       6.9490      2.00000
    292       6.9521      2.00000
    293       6.9872      2.00000
    294       7.0261      2.00000
    295       7.0369      2.00000
    296       7.0787      2.00000
    297       7.0944      2.00000
    298       7.1041      2.00000
    299       7.1281      2.00000
    300       7.1448      2.00000
    301       7.1796      2.00000
    302       7.1977      2.00000
    303       7.2081      2.00000
    304       7.2268      2.00000
    305       7.2382      2.00000
    306       7.2718      2.00000
    307       7.2938      2.00000
    308       7.3239      2.00000
    309       7.3465      2.00000
    310       7.3668      2.00000
    311       7.4088      2.00000
    312       7.4420      2.00000
    313       7.4687      2.00000
    314       7.5257      2.00000
    315       7.5517      2.00000
    316       7.5865      2.00000
    317       7.6155      2.00000
    318       7.6407      2.00000
    319       7.6621      2.00000
    320       7.6937      2.00000
    321       7.7167      2.00000
    322       7.7353      2.00000
    323       7.7521      2.00000
    324       7.7676      2.00000
    325       7.7734      2.00000
    326       7.7931      2.00000
    327       7.8188      2.00000
    328       7.8430      2.00000
    329       7.8626      2.00000
    330       7.8808      2.00000
    331       7.8885      2.00000
    332       7.9074      2.00000
    333       7.9330      2.00000
    334       7.9465      2.00000
    335       7.9627      2.00000
    336       7.9728      2.00000
    337       7.9933      2.00000
    338       8.0130      2.00000
    339       8.0477      2.00000
    340       8.0716      2.00000
    341       8.0908      2.00000
    342       8.1025      2.00000
    343       8.1142      2.00000
    344       8.1492      2.00000
    345       8.1787      2.00000
    346       8.2025      2.00000
    347       8.2362      2.00000
    348       8.2485      2.00000
    349       8.2806      2.00000
    350       8.3089      2.00000
    351       8.3504      2.00000
    352       8.3826      2.00000
    353       8.3985      2.00000
    354       8.4223      2.00000
    355       8.4428      2.00000
    356       8.4698      2.00000
    357       8.4888      2.00000
    358       8.4990      2.00000
    359       8.5554      2.00000
    360       8.5660      2.00000
    361       8.5803      2.00000
    362       8.6059      2.00000
    363       8.6389      2.00000
    364       8.6613      2.00000
    365       8.6903      2.00000
    366       8.7098      2.00000
    367       8.7317      2.00000
    368       8.7637      2.00000
    369       8.7908      2.00000
    370       8.8275      2.00000
    371       8.8550      2.00000
    372       8.8680      2.00000
    373       8.9157      2.00000
    374       8.9454      2.00000
    375       8.9547      2.00000
    376       8.9781      2.00000
    377       9.0219      2.00000
    378       9.0529      2.00000
    379       9.0739      2.00000
    380       9.1032      1.99999
    381       9.1645      1.99452
    382       9.1789      1.98218
    383       9.2117      1.85078
    384       9.2406      1.46775
    385       9.2580      1.10586
    386       9.2932      0.38759
    387       9.3207      0.10095
    388       9.3363      0.03737
    389       9.3564      0.00802
    390       9.3816      0.00077
    391       9.3908      0.00029
    392       9.4266      0.00000
    393       9.4487      0.00000
    394       9.4730      0.00000
    395       9.4858      0.00000
    396       9.5113      0.00000
    397       9.5249      0.00000
    398       9.5545      0.00000
    399       9.5756      0.00000
    400       9.5907      0.00000
    401       9.6213      0.00000
    402       9.6409      0.00000
    403       9.6568      0.00000
    404       9.6807      0.00000
    405       9.6930      0.00000
    406       9.7256      0.00000
    407       9.7482      0.00000
    408       9.7703      0.00000
    409       9.7913      0.00000
    410       9.8096      0.00000
    411       9.8386      0.00000
    412       9.8793      0.00000
    413       9.8960      0.00000
    414       9.9073      0.00000
    415       9.9352      0.00000
    416       9.9524      0.00000
    417      10.0046      0.00000
    418      10.0114      0.00000
    419      10.0342      0.00000
    420      10.0480      0.00000
    421      10.0722      0.00000
    422      10.0942      0.00000
    423      10.1063      0.00000
    424      10.1361      0.00000
    425      10.1515      0.00000
    426      10.1781      0.00000
    427      10.2002      0.00000
    428      10.2096      0.00000
    429      10.2414      0.00000
    430      10.2526      0.00000
    431      10.2877      0.00000
    432      10.3045      0.00000
    433      10.3118      0.00000
    434      10.3411      0.00000
    435      10.3578      0.00000
    436      10.3739      0.00000
    437      10.4106      0.00000
    438      10.4146      0.00000
    439      10.4333      0.00000
    440      10.4389      0.00000
    441      10.4671      0.00000
    442      10.4804      0.00000
    443      10.5003      0.00000
    444      10.5235      0.00000
    445      10.5272      0.00000
    446      10.5596      0.00000
    447      10.5827      0.00000
    448      10.5973      0.00000
    449      10.6418      0.00000
    450      10.6500      0.00000
    451      10.6706      0.00000
    452      10.6854      0.00000
    453      10.6964      0.00000
    454      10.7293      0.00000
    455      10.7426      0.00000
    456      10.7698      0.00000
    457      10.7857      0.00000
    458      10.7957      0.00000
    459      10.8311      0.00000
    460      10.8496      0.00000
    461      10.8795      0.00000
    462      10.9047      0.00000
    463      10.9384      0.00000
    464      10.9841      0.00000

 k-point    38 :       0.5000   -0.2500    0.4000
  band No.  band energies     occupation 
      1     -45.5192      2.00000
      2     -39.4656      2.00000
      3     -39.4244      2.00000
      4     -39.4094      2.00000
      5     -39.3989      2.00000
      6     -39.3960      2.00000
      7     -39.3865      2.00000
      8     -39.3768      2.00000
      9     -39.3650      2.00000
     10     -39.3587      2.00000
     11     -39.3462      2.00000
     12     -39.3383      2.00000
     13     -39.3331      2.00000
     14     -39.3277      2.00000
     15     -39.3217      2.00000
     16     -39.3089      2.00000
     17     -39.2988      2.00000
     18     -39.2974      2.00000
     19     -39.2912      2.00000
     20     -39.2885      2.00000
     21     -39.2837      2.00000
     22     -39.2730      2.00000
     23     -39.2647      2.00000
     24     -39.2603      2.00000
     25     -39.2476      2.00000
     26     -39.2414      2.00000
     27     -39.2381      2.00000
     28     -39.2371      2.00000
     29     -39.2334      2.00000
     30     -39.2286      2.00000
     31     -39.2243      2.00000
     32     -39.2182      2.00000
     33     -39.2139      2.00000
     34     -39.2046      2.00000
     35     -39.1982      2.00000
     36     -39.1876      2.00000
     37     -39.1792      2.00000
     38     -39.1727      2.00000
     39     -39.1644      2.00000
     40     -39.1555      2.00000
     41     -39.1532      2.00000
     42     -39.1478      2.00000
     43     -39.1450      2.00000
     44     -39.1357      2.00000
     45     -39.1274      2.00000
     46     -39.1235      2.00000
     47     -39.1136      2.00000
     48     -39.1067      2.00000
     49     -39.1047      2.00000
     50     -39.1004      2.00000
     51     -39.0983      2.00000
     52     -39.0929      2.00000
     53     -39.0831      2.00000
     54     -39.0710      2.00000
     55     -39.0642      2.00000
     56     -39.0609      2.00000
     57     -39.0313      2.00000
     58     -39.0256      2.00000
     59     -39.0212      2.00000
     60     -39.0198      2.00000
     61     -39.0159      2.00000
     62     -38.9513      2.00000
     63     -38.9136      2.00000
     64     -38.9133      2.00000
     65     -21.6081      2.00000
     66     -21.5850      2.00000
     67     -21.5569      2.00000
     68     -18.0269      2.00000
     69     -17.9771      2.00000
     70     -17.9706      2.00000
     71     -17.9653      2.00000
     72     -17.9538      2.00000
     73     -17.9359      2.00000
     74     -17.9269      2.00000
     75     -17.9168      2.00000
     76     -17.9124      2.00000
     77     -17.9059      2.00000
     78     -17.8913      2.00000
     79     -17.8845      2.00000
     80     -17.8822      2.00000
     81     -17.8724      2.00000
     82     -17.8610      2.00000
     83     -17.8545      2.00000
     84     -17.8463      2.00000
     85     -17.8350      2.00000
     86     -17.8286      2.00000
     87     -17.8239      2.00000
     88     -17.8139      2.00000
     89     -17.8093      2.00000
     90     -17.8025      2.00000
     91     -17.7914      2.00000
     92     -17.7882      2.00000
     93     -17.7870      2.00000
     94     -17.7756      2.00000
     95     -17.7661      2.00000
     96     -17.7627      2.00000
     97     -17.7582      2.00000
     98     -17.7521      2.00000
     99     -17.7452      2.00000
    100     -17.7375      2.00000
    101     -17.7338      2.00000
    102     -17.7240      2.00000
    103     -17.7195      2.00000
    104     -17.7120      2.00000
    105     -17.6983      2.00000
    106     -17.6907      2.00000
    107     -17.6841      2.00000
    108     -17.6770      2.00000
    109     -17.6732      2.00000
    110     -17.6673      2.00000
    111     -17.6562      2.00000
    112     -17.6439      2.00000
    113     -17.6352      2.00000
    114     -17.6267      2.00000
    115     -17.6247      2.00000
    116     -17.6140      2.00000
    117     -17.6026      2.00000
    118     -17.5987      2.00000
    119     -17.5883      2.00000
    120     -17.5819      2.00000
    121     -17.5734      2.00000
    122     -17.5718      2.00000
    123     -17.5641      2.00000
    124     -17.5471      2.00000
    125     -17.5373      2.00000
    126     -17.5191      2.00000
    127     -17.5072      2.00000
    128     -17.4941      2.00000
    129     -17.4826      2.00000
    130     -17.4770      2.00000
    131     -17.4699      2.00000
    132     -17.4620      2.00000
    133     -17.4475      2.00000
    134     -17.4410      2.00000
    135     -17.4326      2.00000
    136     -17.4251      2.00000
    137     -17.4128      2.00000
    138     -17.4080      2.00000
    139     -17.4041      2.00000
    140     -17.3916      2.00000
    141     -17.3873      2.00000
    142     -17.3751      2.00000
    143     -17.3727      2.00000
    144     -17.3627      2.00000
    145     -17.3603      2.00000
    146     -17.3440      2.00000
    147     -17.3413      2.00000
    148     -17.3296      2.00000
    149     -17.3238      2.00000
    150     -17.3212      2.00000
    151     -17.3139      2.00000
    152     -17.3057      2.00000
    153     -17.3014      2.00000
    154     -17.2962      2.00000
    155     -17.2895      2.00000
    156     -17.2755      2.00000
    157     -17.2742      2.00000
    158     -17.2678      2.00000
    159     -17.2574      2.00000
    160     -17.2516      2.00000
    161     -17.2444      2.00000
    162     -17.2420      2.00000
    163     -17.2385      2.00000
    164     -17.2349      2.00000
    165     -17.2263      2.00000
    166     -17.2237      2.00000
    167     -17.2131      2.00000
    168     -17.2075      2.00000
    169     -17.1971      2.00000
    170     -17.1929      2.00000
    171     -17.1842      2.00000
    172     -17.1785      2.00000
    173     -17.1768      2.00000
    174     -17.1695      2.00000
    175     -17.1637      2.00000
    176     -17.1592      2.00000
    177     -17.1540      2.00000
    178     -17.1466      2.00000
    179     -17.1423      2.00000
    180     -17.1402      2.00000
    181     -17.1304      2.00000
    182     -17.1269      2.00000
    183     -17.1235      2.00000
    184     -17.1161      2.00000
    185     -17.1100      2.00000
    186     -17.1054      2.00000
    187     -17.1039      2.00000
    188     -17.0955      2.00000
    189     -17.0915      2.00000
    190     -17.0858      2.00000
    191     -17.0804      2.00000
    192     -17.0776      2.00000
    193     -17.0677      2.00000
    194     -17.0631      2.00000
    195     -17.0572      2.00000
    196     -17.0514      2.00000
    197     -17.0479      2.00000
    198     -17.0417      2.00000
    199     -17.0358      2.00000
    200     -17.0312      2.00000
    201     -17.0264      2.00000
    202     -17.0246      2.00000
    203     -17.0164      2.00000
    204     -17.0079      2.00000
    205     -17.0039      2.00000
    206     -16.9987      2.00000
    207     -16.9915      2.00000
    208     -16.9876      2.00000
    209     -16.9855      2.00000
    210     -16.9798      2.00000
    211     -16.9741      2.00000
    212     -16.9705      2.00000
    213     -16.9663      2.00000
    214     -16.9585      2.00000
    215     -16.9527      2.00000
    216     -16.9498      2.00000
    217     -16.9413      2.00000
    218     -16.9378      2.00000
    219     -16.9326      2.00000
    220     -16.9319      2.00000
    221     -16.9250      2.00000
    222     -16.9200      2.00000
    223     -16.9163      2.00000
    224     -16.9129      2.00000
    225     -16.9070      2.00000
    226     -16.9006      2.00000
    227     -16.8971      2.00000
    228     -16.8912      2.00000
    229     -16.8836      2.00000
    230     -16.8815      2.00000
    231     -16.8723      2.00000
    232     -16.8636      2.00000
    233     -16.8597      2.00000
    234     -16.8523      2.00000
    235     -16.8457      2.00000
    236     -16.8421      2.00000
    237     -16.8366      2.00000
    238     -16.8289      2.00000
    239     -16.8265      2.00000
    240     -16.8169      2.00000
    241     -16.8106      2.00000
    242     -16.8078      2.00000
    243     -16.8038      2.00000
    244     -16.7864      2.00000
    245     -16.7790      2.00000
    246     -16.7690      2.00000
    247     -16.7621      2.00000
    248     -16.7549      2.00000
    249     -16.7496      2.00000
    250     -16.7300      2.00000
    251     -16.7168      2.00000
    252     -16.7084      2.00000
    253     -16.6991      2.00000
    254     -16.6625      2.00000
    255     -16.6515      2.00000
    256     -16.6443      2.00000
    257       4.4757      2.00000
    258       4.4901      2.00000
    259       4.8460      2.00000
    260       4.8585      2.00000
    261       5.2271      2.00000
    262       5.2362      2.00000
    263       5.5296      2.00000
    264       5.5448      2.00000
    265       6.1964      2.00000
    266       6.2073      2.00000
    267       6.2177      2.00000
    268       6.2407      2.00000
    269       6.2594      2.00000
    270       6.2713      2.00000
    271       6.2942      2.00000
    272       6.3120      2.00000
    273       6.3437      2.00000
    274       6.3656      2.00000
    275       6.3863      2.00000
    276       6.3986      2.00000
    277       6.4456      2.00000
    278       6.4786      2.00000
    279       6.4936      2.00000
    280       6.5332      2.00000
    281       6.5381      2.00000
    282       6.5590      2.00000
    283       6.5723      2.00000
    284       6.5996      2.00000
    285       6.6276      2.00000
    286       6.6447      2.00000
    287       6.6624      2.00000
    288       6.6699      2.00000
    289       6.8515      2.00000
    290       6.9094      2.00000
    291       6.9353      2.00000
    292       6.9623      2.00000
    293       6.9994      2.00000
    294       7.0074      2.00000
    295       7.0334      2.00000
    296       7.0578      2.00000
    297       7.0785      2.00000
    298       7.1096      2.00000
    299       7.1378      2.00000
    300       7.1449      2.00000
    301       7.1839      2.00000
    302       7.1979      2.00000
    303       7.2117      2.00000
    304       7.2406      2.00000
    305       7.2564      2.00000
    306       7.2776      2.00000
    307       7.2955      2.00000
    308       7.3143      2.00000
    309       7.3460      2.00000
    310       7.3820      2.00000
    311       7.3980      2.00000
    312       7.4444      2.00000
    313       7.4857      2.00000
    314       7.4978      2.00000
    315       7.5461      2.00000
    316       7.5721      2.00000
    317       7.6104      2.00000
    318       7.6170      2.00000
    319       7.6386      2.00000
    320       7.6704      2.00000
    321       7.7238      2.00000
    322       7.7466      2.00000
    323       7.7550      2.00000
    324       7.7673      2.00000
    325       7.7907      2.00000
    326       7.8097      2.00000
    327       7.8315      2.00000
    328       7.8403      2.00000
    329       7.8645      2.00000
    330       7.8759      2.00000
    331       7.8859      2.00000
    332       7.9084      2.00000
    333       7.9305      2.00000
    334       7.9406      2.00000
    335       7.9817      2.00000
    336       7.9896      2.00000
    337       8.0028      2.00000
    338       8.0294      2.00000
    339       8.0556      2.00000
    340       8.0651      2.00000
    341       8.0766      2.00000
    342       8.1052      2.00000
    343       8.1322      2.00000
    344       8.1500      2.00000
    345       8.1766      2.00000
    346       8.2075      2.00000
    347       8.2372      2.00000
    348       8.2592      2.00000
    349       8.2973      2.00000
    350       8.3065      2.00000
    351       8.3292      2.00000
    352       8.3576      2.00000
    353       8.3808      2.00000
    354       8.3901      2.00000
    355       8.4141      2.00000
    356       8.4437      2.00000
    357       8.4977      2.00000
    358       8.5058      2.00000
    359       8.5370      2.00000
    360       8.5672      2.00000
    361       8.5952      2.00000
    362       8.6140      2.00000
    363       8.6400      2.00000
    364       8.6626      2.00000
    365       8.6835      2.00000
    366       8.7270      2.00000
    367       8.7496      2.00000
    368       8.7728      2.00000
    369       8.7954      2.00000
    370       8.8348      2.00000
    371       8.8565      2.00000
    372       8.8684      2.00000
    373       8.8966      2.00000
    374       8.9290      2.00000
    375       8.9615      2.00000
    376       8.9934      2.00000
    377       9.0170      2.00000
    378       9.0778      2.00000
    379       9.0954      2.00000
    380       9.1278      1.99986
    381       9.1399      1.99949
    382       9.1803      1.98016
    383       9.2035      1.90601
    384       9.2450      1.38413
    385       9.2661      0.92319
    386       9.2896      0.44736
    387       9.3058      0.22314
    388       9.3318      0.05072
    389       9.3630      0.00456
    390       9.3889      0.00036
    391       9.4083      0.00004
    392       9.4321      0.00000
    393       9.4620      0.00000
    394       9.4707      0.00000
    395       9.4927      0.00000
    396       9.5024      0.00000
    397       9.5323      0.00000
    398       9.5470      0.00000
    399       9.5656      0.00000
    400       9.5985      0.00000
    401       9.6187      0.00000
    402       9.6304      0.00000
    403       9.6631      0.00000
    404       9.6739      0.00000
    405       9.7039      0.00000
    406       9.7232      0.00000
    407       9.7645      0.00000
    408       9.7767      0.00000
    409       9.8036      0.00000
    410       9.8206      0.00000
    411       9.8531      0.00000
    412       9.8801      0.00000
    413       9.8921      0.00000
    414       9.9227      0.00000
    415       9.9315      0.00000
    416       9.9554      0.00000
    417       9.9719      0.00000
    418       9.9918      0.00000
    419      10.0144      0.00000
    420      10.0546      0.00000
    421      10.0793      0.00000
    422      10.0839      0.00000
    423      10.1127      0.00000
    424      10.1219      0.00000
    425      10.1476      0.00000
    426      10.1833      0.00000
    427      10.2043      0.00000
    428      10.2158      0.00000
    429      10.2327      0.00000
    430      10.2483      0.00000
    431      10.2757      0.00000
    432      10.2931      0.00000
    433      10.3000      0.00000
    434      10.3268      0.00000
    435      10.3523      0.00000
    436      10.3628      0.00000
    437      10.3909      0.00000
    438      10.4097      0.00000
    439      10.4467      0.00000
    440      10.4527      0.00000
    441      10.4619      0.00000
    442      10.4994      0.00000
    443      10.5038      0.00000
    444      10.5215      0.00000
    445      10.5430      0.00000
    446      10.5539      0.00000
    447      10.5629      0.00000
    448      10.5931      0.00000
    449      10.6147      0.00000
    450      10.6230      0.00000
    451      10.6448      0.00000
    452      10.6777      0.00000
    453      10.7114      0.00000
    454      10.7310      0.00000
    455      10.7559      0.00000
    456      10.7671      0.00000
    457      10.7934      0.00000
    458      10.8143      0.00000
    459      10.8470      0.00000
    460      10.8567      0.00000
    461      10.8777      0.00000
    462      10.9064      0.00000
    463      10.9464      0.00000
    464      10.9971      0.00000

 k-point    39 :      -0.0000    0.5000    0.4000
  band No.  band energies     occupation 
      1     -45.5192      2.00000
      2     -39.4655      2.00000
      3     -39.4249      2.00000
      4     -39.4069      2.00000
      5     -39.3998      2.00000
      6     -39.3959      2.00000
      7     -39.3881      2.00000
      8     -39.3758      2.00000
      9     -39.3653      2.00000
     10     -39.3594      2.00000
     11     -39.3446      2.00000
     12     -39.3383      2.00000
     13     -39.3340      2.00000
     14     -39.3282      2.00000
     15     -39.3212      2.00000
     16     -39.3105      2.00000
     17     -39.3003      2.00000
     18     -39.2960      2.00000
     19     -39.2913      2.00000
     20     -39.2883      2.00000
     21     -39.2844      2.00000
     22     -39.2729      2.00000
     23     -39.2653      2.00000
     24     -39.2587      2.00000
     25     -39.2456      2.00000
     26     -39.2439      2.00000
     27     -39.2389      2.00000
     28     -39.2365      2.00000
     29     -39.2347      2.00000
     30     -39.2309      2.00000
     31     -39.2226      2.00000
     32     -39.2171      2.00000
     33     -39.2113      2.00000
     34     -39.2037      2.00000
     35     -39.1975      2.00000
     36     -39.1873      2.00000
     37     -39.1783      2.00000
     38     -39.1742      2.00000
     39     -39.1642      2.00000
     40     -39.1555      2.00000
     41     -39.1526      2.00000
     42     -39.1496      2.00000
     43     -39.1450      2.00000
     44     -39.1350      2.00000
     45     -39.1284      2.00000
     46     -39.1235      2.00000
     47     -39.1134      2.00000
     48     -39.1086      2.00000
     49     -39.1043      2.00000
     50     -39.1001      2.00000
     51     -39.0960      2.00000
     52     -39.0940      2.00000
     53     -39.0829      2.00000
     54     -39.0713      2.00000
     55     -39.0644      2.00000
     56     -39.0610      2.00000
     57     -39.0311      2.00000
     58     -39.0255      2.00000
     59     -39.0215      2.00000
     60     -39.0196      2.00000
     61     -39.0160      2.00000
     62     -38.9513      2.00000
     63     -38.9136      2.00000
     64     -38.9133      2.00000
     65     -21.6081      2.00000
     66     -21.5850      2.00000
     67     -21.5569      2.00000
     68     -18.0260      2.00000
     69     -17.9737      2.00000
     70     -17.9662      2.00000
     71     -17.9617      2.00000
     72     -17.9454      2.00000
     73     -17.9377      2.00000
     74     -17.9319      2.00000
     75     -17.9221      2.00000
     76     -17.9113      2.00000
     77     -17.9028      2.00000
     78     -17.8970      2.00000
     79     -17.8914      2.00000
     80     -17.8778      2.00000
     81     -17.8681      2.00000
     82     -17.8603      2.00000
     83     -17.8530      2.00000
     84     -17.8480      2.00000
     85     -17.8370      2.00000
     86     -17.8305      2.00000
     87     -17.8205      2.00000
     88     -17.8135      2.00000
     89     -17.8062      2.00000
     90     -17.7985      2.00000
     91     -17.7907      2.00000
     92     -17.7852      2.00000
     93     -17.7772      2.00000
     94     -17.7718      2.00000
     95     -17.7678      2.00000
     96     -17.7610      2.00000
     97     -17.7552      2.00000
     98     -17.7517      2.00000
     99     -17.7438      2.00000
    100     -17.7400      2.00000
    101     -17.7365      2.00000
    102     -17.7266      2.00000
    103     -17.7213      2.00000
    104     -17.7168      2.00000
    105     -17.7136      2.00000
    106     -17.7116      2.00000
    107     -17.7045      2.00000
    108     -17.6968      2.00000
    109     -17.6844      2.00000
    110     -17.6764      2.00000
    111     -17.6698      2.00000
    112     -17.6630      2.00000
    113     -17.6600      2.00000
    114     -17.6556      2.00000
    115     -17.6365      2.00000
    116     -17.6226      2.00000
    117     -17.6213      2.00000
    118     -17.6098      2.00000
    119     -17.5995      2.00000
    120     -17.5550      2.00000
    121     -17.5403      2.00000
    122     -17.5321      2.00000
    123     -17.5142      2.00000
    124     -17.5005      2.00000
    125     -17.4952      2.00000
    126     -17.4874      2.00000
    127     -17.4788      2.00000
    128     -17.4741      2.00000
    129     -17.4673      2.00000
    130     -17.4571      2.00000
    131     -17.4529      2.00000
    132     -17.4421      2.00000
    133     -17.4351      2.00000
    134     -17.4328      2.00000
    135     -17.4275      2.00000
    136     -17.4202      2.00000
    137     -17.4144      2.00000
    138     -17.4081      2.00000
    139     -17.4032      2.00000
    140     -17.4000      2.00000
    141     -17.3901      2.00000
    142     -17.3865      2.00000
    143     -17.3787      2.00000
    144     -17.3710      2.00000
    145     -17.3653      2.00000
    146     -17.3604      2.00000
    147     -17.3535      2.00000
    148     -17.3421      2.00000
    149     -17.3368      2.00000
    150     -17.3314      2.00000
    151     -17.3235      2.00000
    152     -17.3147      2.00000
    153     -17.3066      2.00000
    154     -17.3024      2.00000
    155     -17.2961      2.00000
    156     -17.2864      2.00000
    157     -17.2791      2.00000
    158     -17.2715      2.00000
    159     -17.2643      2.00000
    160     -17.2579      2.00000
    161     -17.2544      2.00000
    162     -17.2482      2.00000
    163     -17.2426      2.00000
    164     -17.2391      2.00000
    165     -17.2329      2.00000
    166     -17.2267      2.00000
    167     -17.2161      2.00000
    168     -17.2120      2.00000
    169     -17.2001      2.00000
    170     -17.1974      2.00000
    171     -17.1913      2.00000
    172     -17.1884      2.00000
    173     -17.1834      2.00000
    174     -17.1721      2.00000
    175     -17.1663      2.00000
    176     -17.1618      2.00000
    177     -17.1554      2.00000
    178     -17.1495      2.00000
    179     -17.1436      2.00000
    180     -17.1388      2.00000
    181     -17.1325      2.00000
    182     -17.1232      2.00000
    183     -17.1203      2.00000
    184     -17.1165      2.00000
    185     -17.1100      2.00000
    186     -17.1053      2.00000
    187     -17.0985      2.00000
    188     -17.0932      2.00000
    189     -17.0868      2.00000
    190     -17.0807      2.00000
    191     -17.0754      2.00000
    192     -17.0727      2.00000
    193     -17.0630      2.00000
    194     -17.0609      2.00000
    195     -17.0551      2.00000
    196     -17.0524      2.00000
    197     -17.0465      2.00000
    198     -17.0423      2.00000
    199     -17.0370      2.00000
    200     -17.0336      2.00000
    201     -17.0278      2.00000
    202     -17.0219      2.00000
    203     -17.0125      2.00000
    204     -17.0096      2.00000
    205     -17.0054      2.00000
    206     -17.0026      2.00000
    207     -16.9973      2.00000
    208     -16.9897      2.00000
    209     -16.9850      2.00000
    210     -16.9793      2.00000
    211     -16.9737      2.00000
    212     -16.9684      2.00000
    213     -16.9633      2.00000
    214     -16.9597      2.00000
    215     -16.9547      2.00000
    216     -16.9508      2.00000
    217     -16.9423      2.00000
    218     -16.9377      2.00000
    219     -16.9334      2.00000
    220     -16.9298      2.00000
    221     -16.9231      2.00000
    222     -16.9183      2.00000
    223     -16.9149      2.00000
    224     -16.9086      2.00000
    225     -16.8994      2.00000
    226     -16.8964      2.00000
    227     -16.8927      2.00000
    228     -16.8912      2.00000
    229     -16.8866      2.00000
    230     -16.8814      2.00000
    231     -16.8725      2.00000
    232     -16.8660      2.00000
    233     -16.8612      2.00000
    234     -16.8534      2.00000
    235     -16.8437      2.00000
    236     -16.8421      2.00000
    237     -16.8351      2.00000
    238     -16.8283      2.00000
    239     -16.8225      2.00000
    240     -16.8165      2.00000
    241     -16.8135      2.00000
    242     -16.8078      2.00000
    243     -16.8042      2.00000
    244     -16.7804      2.00000
    245     -16.7775      2.00000
    246     -16.7684      2.00000
    247     -16.7618      2.00000
    248     -16.7556      2.00000
    249     -16.7510      2.00000
    250     -16.7287      2.00000
    251     -16.7161      2.00000
    252     -16.7072      2.00000
    253     -16.6973      2.00000
    254     -16.6711      2.00000
    255     -16.6499      2.00000
    256     -16.6401      2.00000
    257       4.4693      2.00000
    258       4.4964      2.00000
    259       4.8408      2.00000
    260       4.8659      2.00000
    261       5.4743      2.00000
    262       5.4987      2.00000
    263       5.5141      2.00000
    264       5.5243      2.00000
    265       5.7295      2.00000
    266       5.7573      2.00000
    267       5.7684      2.00000
    268       5.7807      2.00000
    269       6.2282      2.00000
    270       6.2365      2.00000
    271       6.2657      2.00000
    272       6.2761      2.00000
    273       6.4599      2.00000
    274       6.4874      2.00000
    275       6.4984      2.00000
    276       6.5079      2.00000
    277       6.5207      2.00000
    278       6.5340      2.00000
    279       6.5462      2.00000
    280       6.5781      2.00000
    281       6.5973      2.00000
    282       6.6160      2.00000
    283       6.6516      2.00000
    284       6.6820      2.00000
    285       6.8415      2.00000
    286       6.8932      2.00000
    287       6.9275      2.00000
    288       6.9713      2.00000
    289       7.0036      2.00000
    290       7.0177      2.00000
    291       7.0383      2.00000
    292       7.0520      2.00000
    293       7.0740      2.00000
    294       7.0870      2.00000
    295       7.1013      2.00000
    296       7.1104      2.00000
    297       7.1190      2.00000
    298       7.1369      2.00000
    299       7.1464      2.00000
    300       7.1677      2.00000
    301       7.1758      2.00000
    302       7.1949      2.00000
    303       7.2071      2.00000
    304       7.2212      2.00000
    305       7.2281      2.00000
    306       7.2433      2.00000
    307       7.2572      2.00000
    308       7.2678      2.00000
    309       7.2829      2.00000
    310       7.2904      2.00000
    311       7.3070      2.00000
    312       7.3169      2.00000
    313       7.3356      2.00000
    314       7.3515      2.00000
    315       7.3773      2.00000
    316       7.3844      2.00000
    317       7.4133      2.00000
    318       7.4327      2.00000
    319       7.4617      2.00000
    320       7.4810      2.00000
    321       7.6610      2.00000
    322       7.7001      2.00000
    323       7.7499      2.00000
    324       7.7779      2.00000
    325       7.8022      2.00000
    326       7.8237      2.00000
    327       7.8291      2.00000
    328       7.8478      2.00000
    329       7.8684      2.00000
    330       7.9090      2.00000
    331       7.9146      2.00000
    332       7.9369      2.00000
    333       7.9598      2.00000
    334       7.9831      2.00000
    335       7.9986      2.00000
    336       8.0121      2.00000
    337       8.0335      2.00000
    338       8.0625      2.00000
    339       8.0740      2.00000
    340       8.1077      2.00000
    341       8.1159      2.00000
    342       8.1294      2.00000
    343       8.1712      2.00000
    344       8.1952      2.00000
    345       8.2116      2.00000
    346       8.2300      2.00000
    347       8.2552      2.00000
    348       8.2828      2.00000
    349       8.2975      2.00000
    350       8.3296      2.00000
    351       8.3463      2.00000
    352       8.3712      2.00000
    353       8.3966      2.00000
    354       8.4467      2.00000
    355       8.4582      2.00000
    356       8.4927      2.00000
    357       8.5069      2.00000
    358       8.5430      2.00000
    359       8.5528      2.00000
    360       8.5793      2.00000
    361       8.6105      2.00000
    362       8.6356      2.00000
    363       8.6639      2.00000
    364       8.6897      2.00000
    365       8.7395      2.00000
    366       8.7650      2.00000
    367       8.7730      2.00000
    368       8.7848      2.00000
    369       8.8295      2.00000
    370       8.8503      2.00000
    371       8.8681      2.00000
    372       8.8983      2.00000
    373       8.9101      2.00000
    374       8.9873      2.00000
    375       9.0257      2.00000
    376       9.0469      2.00000
    377       9.0628      2.00000
    378       9.0816      2.00000
    379       9.1188      1.99995
    380       9.1504      1.99850
    381       9.1743      1.98755
    382       9.2022      1.91281
    383       9.2196      1.77674
    384       9.2531      1.21497
    385       9.2833      0.56012
    386       9.2997      0.29545
    387       9.3307      0.05457
    388       9.3528      0.01080
    389       9.3562      0.00817
    390       9.3747      0.00153
    391       9.4070      0.00005
    392       9.4252      0.00000
    393       9.4399      0.00000
    394       9.4552      0.00000
    395       9.4824      0.00000
    396       9.5000      0.00000
    397       9.5164      0.00000
    398       9.5290      0.00000
    399       9.5488      0.00000
    400       9.5700      0.00000
    401       9.5878      0.00000
    402       9.6193      0.00000
    403       9.6339      0.00000
    404       9.6604      0.00000
    405       9.6883      0.00000
    406       9.7163      0.00000
    407       9.7243      0.00000
    408       9.7366      0.00000
    409       9.7626      0.00000
    410       9.7890      0.00000
    411       9.8057      0.00000
    412       9.8296      0.00000
    413       9.8421      0.00000
    414       9.8803      0.00000
    415       9.8970      0.00000
    416       9.9255      0.00000
    417       9.9355      0.00000
    418       9.9632      0.00000
    419       9.9982      0.00000
    420      10.0400      0.00000
    421      10.0466      0.00000
    422      10.0794      0.00000
    423      10.1091      0.00000
    424      10.1376      0.00000
    425      10.1603      0.00000
    426      10.1841      0.00000
    427      10.2018      0.00000
    428      10.2225      0.00000
    429      10.2357      0.00000
    430      10.2542      0.00000
    431      10.2633      0.00000
    432      10.2938      0.00000
    433      10.3149      0.00000
    434      10.3286      0.00000
    435      10.3534      0.00000
    436      10.3767      0.00000
    437      10.3900      0.00000
    438      10.4183      0.00000
    439      10.4427      0.00000
    440      10.4573      0.00000
    441      10.4816      0.00000
    442      10.5024      0.00000
    443      10.5334      0.00000
    444      10.5443      0.00000
    445      10.5640      0.00000
    446      10.5909      0.00000
    447      10.6138      0.00000
    448      10.6283      0.00000
    449      10.6339      0.00000
    450      10.6580      0.00000
    451      10.6768      0.00000
    452      10.6942      0.00000
    453      10.7136      0.00000
    454      10.7269      0.00000
    455      10.7427      0.00000
    456      10.7757      0.00000
    457      10.7945      0.00000
    458      10.8199      0.00000
    459      10.8348      0.00000
    460      10.8691      0.00000
    461      10.8869      0.00000
    462      10.9118      0.00000
    463      10.9245      0.00000
    464      10.9780      0.00000

 k-point    40 :       0.2500    0.5000    0.4000
  band No.  band energies     occupation 
      1     -45.5192      2.00000
      2     -39.4653      2.00000
      3     -39.4243      2.00000
      4     -39.4077      2.00000
      5     -39.4001      2.00000
      6     -39.3956      2.00000
      7     -39.3878      2.00000
      8     -39.3757      2.00000
      9     -39.3670      2.00000
     10     -39.3586      2.00000
     11     -39.3451      2.00000
     12     -39.3378      2.00000
     13     -39.3341      2.00000
     14     -39.3280      2.00000
     15     -39.3229      2.00000
     16     -39.3091      2.00000
     17     -39.2996      2.00000
     18     -39.2964      2.00000
     19     -39.2914      2.00000
     20     -39.2885      2.00000
     21     -39.2834      2.00000
     22     -39.2733      2.00000
     23     -39.2656      2.00000
     24     -39.2587      2.00000
     25     -39.2442      2.00000
     26     -39.2434      2.00000
     27     -39.2385      2.00000
     28     -39.2373      2.00000
     29     -39.2333      2.00000
     30     -39.2316      2.00000
     31     -39.2224      2.00000
     32     -39.2177      2.00000
     33     -39.2132      2.00000
     34     -39.2038      2.00000
     35     -39.1975      2.00000
     36     -39.1863      2.00000
     37     -39.1797      2.00000
     38     -39.1731      2.00000
     39     -39.1646      2.00000
     40     -39.1558      2.00000
     41     -39.1532      2.00000
     42     -39.1483      2.00000
     43     -39.1452      2.00000
     44     -39.1361      2.00000
     45     -39.1276      2.00000
     46     -39.1236      2.00000
     47     -39.1134      2.00000
     48     -39.1080      2.00000
     49     -39.1044      2.00000
     50     -39.1004      2.00000
     51     -39.0968      2.00000
     52     -39.0935      2.00000
     53     -39.0831      2.00000
     54     -39.0712      2.00000
     55     -39.0644      2.00000
     56     -39.0609      2.00000
     57     -39.0312      2.00000
     58     -39.0256      2.00000
     59     -39.0214      2.00000
     60     -39.0197      2.00000
     61     -39.0160      2.00000
     62     -38.9513      2.00000
     63     -38.9136      2.00000
     64     -38.9133      2.00000
     65     -21.6081      2.00000
     66     -21.5850      2.00000
     67     -21.5569      2.00000
     68     -18.0249      2.00000
     69     -17.9722      2.00000
     70     -17.9649      2.00000
     71     -17.9583      2.00000
     72     -17.9423      2.00000
     73     -17.9328      2.00000
     74     -17.9319      2.00000
     75     -17.9170      2.00000
     76     -17.9128      2.00000
     77     -17.9001      2.00000
     78     -17.8960      2.00000
     79     -17.8914      2.00000
     80     -17.8755      2.00000
     81     -17.8686      2.00000
     82     -17.8629      2.00000
     83     -17.8519      2.00000
     84     -17.8483      2.00000
     85     -17.8359      2.00000
     86     -17.8262      2.00000
     87     -17.8214      2.00000
     88     -17.8137      2.00000
     89     -17.8073      2.00000
     90     -17.8025      2.00000
     91     -17.7945      2.00000
     92     -17.7855      2.00000
     93     -17.7818      2.00000
     94     -17.7746      2.00000
     95     -17.7712      2.00000
     96     -17.7641      2.00000
     97     -17.7578      2.00000
     98     -17.7507      2.00000
     99     -17.7437      2.00000
    100     -17.7391      2.00000
    101     -17.7363      2.00000
    102     -17.7315      2.00000
    103     -17.7245      2.00000
    104     -17.7179      2.00000
    105     -17.7104      2.00000
    106     -17.7002      2.00000
    107     -17.6967      2.00000
    108     -17.6906      2.00000
    109     -17.6818      2.00000
    110     -17.6746      2.00000
    111     -17.6694      2.00000
    112     -17.6621      2.00000
    113     -17.6526      2.00000
    114     -17.6483      2.00000
    115     -17.6330      2.00000
    116     -17.6203      2.00000
    117     -17.6153      2.00000
    118     -17.6058      2.00000
    119     -17.6046      2.00000
    120     -17.5692      2.00000
    121     -17.5651      2.00000
    122     -17.5475      2.00000
    123     -17.5327      2.00000
    124     -17.5218      2.00000
    125     -17.5160      2.00000
    126     -17.5088      2.00000
    127     -17.4991      2.00000
    128     -17.4894      2.00000
    129     -17.4749      2.00000
    130     -17.4710      2.00000
    131     -17.4567      2.00000
    132     -17.4503      2.00000
    133     -17.4410      2.00000
    134     -17.4330      2.00000
    135     -17.4262      2.00000
    136     -17.4157      2.00000
    137     -17.4104      2.00000
    138     -17.4054      2.00000
    139     -17.3989      2.00000
    140     -17.3952      2.00000
    141     -17.3865      2.00000
    142     -17.3767      2.00000
    143     -17.3732      2.00000
    144     -17.3645      2.00000
    145     -17.3604      2.00000
    146     -17.3537      2.00000
    147     -17.3449      2.00000
    148     -17.3334      2.00000
    149     -17.3236      2.00000
    150     -17.3174      2.00000
    151     -17.3128      2.00000
    152     -17.3035      2.00000
    153     -17.2985      2.00000
    154     -17.2963      2.00000
    155     -17.2883      2.00000
    156     -17.2807      2.00000
    157     -17.2739      2.00000
    158     -17.2669      2.00000
    159     -17.2630      2.00000
    160     -17.2573      2.00000
    161     -17.2490      2.00000
    162     -17.2450      2.00000
    163     -17.2420      2.00000
    164     -17.2315      2.00000
    165     -17.2258      2.00000
    166     -17.2242      2.00000
    167     -17.2118      2.00000
    168     -17.2049      2.00000
    169     -17.2011      2.00000
    170     -17.1968      2.00000
    171     -17.1889      2.00000
    172     -17.1808      2.00000
    173     -17.1799      2.00000
    174     -17.1707      2.00000
    175     -17.1692      2.00000
    176     -17.1629      2.00000
    177     -17.1534      2.00000
    178     -17.1496      2.00000
    179     -17.1427      2.00000
    180     -17.1380      2.00000
    181     -17.1342      2.00000
    182     -17.1278      2.00000
    183     -17.1231      2.00000
    184     -17.1148      2.00000
    185     -17.1124      2.00000
    186     -17.1078      2.00000
    187     -17.1034      2.00000
    188     -17.0932      2.00000
    189     -17.0901      2.00000
    190     -17.0826      2.00000
    191     -17.0779      2.00000
    192     -17.0734      2.00000
    193     -17.0696      2.00000
    194     -17.0621      2.00000
    195     -17.0594      2.00000
    196     -17.0515      2.00000
    197     -17.0477      2.00000
    198     -17.0461      2.00000
    199     -17.0354      2.00000
    200     -17.0307      2.00000
    201     -17.0280      2.00000
    202     -17.0190      2.00000
    203     -17.0144      2.00000
    204     -17.0070      2.00000
    205     -17.0053      2.00000
    206     -17.0021      2.00000
    207     -16.9948      2.00000
    208     -16.9889      2.00000
    209     -16.9832      2.00000
    210     -16.9813      2.00000
    211     -16.9739      2.00000
    212     -16.9703      2.00000
    213     -16.9662      2.00000
    214     -16.9603      2.00000
    215     -16.9556      2.00000
    216     -16.9488      2.00000
    217     -16.9433      2.00000
    218     -16.9415      2.00000
    219     -16.9339      2.00000
    220     -16.9287      2.00000
    221     -16.9238      2.00000
    222     -16.9203      2.00000
    223     -16.9165      2.00000
    224     -16.9103      2.00000
    225     -16.9032      2.00000
    226     -16.9002      2.00000
    227     -16.8964      2.00000
    228     -16.8906      2.00000
    229     -16.8854      2.00000
    230     -16.8812      2.00000
    231     -16.8719      2.00000
    232     -16.8620      2.00000
    233     -16.8597      2.00000
    234     -16.8552      2.00000
    235     -16.8444      2.00000
    236     -16.8428      2.00000
    237     -16.8359      2.00000
    238     -16.8298      2.00000
    239     -16.8232      2.00000
    240     -16.8171      2.00000
    241     -16.8119      2.00000
    242     -16.8088      2.00000
    243     -16.8046      2.00000
    244     -16.7810      2.00000
    245     -16.7788      2.00000
    246     -16.7675      2.00000
    247     -16.7618      2.00000
    248     -16.7559      2.00000
    249     -16.7543      2.00000
    250     -16.7287      2.00000
    251     -16.7158      2.00000
    252     -16.7072      2.00000
    253     -16.6974      2.00000
    254     -16.6695      2.00000
    255     -16.6502      2.00000
    256     -16.6424      2.00000
    257       4.5456      2.00000
    258       4.5724      2.00000
    259       4.9119      2.00000
    260       4.9369      2.00000
    261       5.0997      2.00000
    262       5.1214      2.00000
    263       5.4142      2.00000
    264       5.4375      2.00000
    265       5.8867      2.00000
    266       5.9075      2.00000
    267       6.0469      2.00000
    268       6.0629      2.00000
    269       6.2959      2.00000
    270       6.3045      2.00000
    271       6.3360      2.00000
    272       6.3437      2.00000
    273       6.3936      2.00000
    274       6.4153      2.00000
    275       6.4318      2.00000
    276       6.4524      2.00000
    277       6.5823      2.00000
    278       6.5913      2.00000
    279       6.6149      2.00000
    280       6.6312      2.00000
    281       6.6674      2.00000
    282       6.6841      2.00000
    283       6.7088      2.00000
    284       6.7382      2.00000
    285       6.7974      2.00000
    286       6.8212      2.00000
    287       6.8389      2.00000
    288       6.8602      2.00000
    289       6.9091      2.00000
    290       6.9193      2.00000
    291       6.9398      2.00000
    292       6.9635      2.00000
    293       6.9785      2.00000
    294       7.0166      2.00000
    295       7.0387      2.00000
    296       7.0590      2.00000
    297       7.0776      2.00000
    298       7.0862      2.00000
    299       7.0950      2.00000
    300       7.1208      2.00000
    301       7.1389      2.00000
    302       7.1468      2.00000
    303       7.1710      2.00000
    304       7.1941      2.00000
    305       7.2133      2.00000
    306       7.2407      2.00000
    307       7.2499      2.00000
    308       7.2704      2.00000
    309       7.2994      2.00000
    310       7.3281      2.00000
    311       7.3447      2.00000
    312       7.3545      2.00000
    313       7.3792      2.00000
    314       7.4104      2.00000
    315       7.4301      2.00000
    316       7.4526      2.00000
    317       7.5180      2.00000
    318       7.5462      2.00000
    319       7.5795      2.00000
    320       7.6186      2.00000
    321       7.6360      2.00000
    322       7.6790      2.00000
    323       7.7193      2.00000
    324       7.7338      2.00000
    325       7.7515      2.00000
    326       7.7716      2.00000
    327       7.7903      2.00000
    328       7.8086      2.00000
    329       7.8290      2.00000
    330       7.8423      2.00000
    331       7.8664      2.00000
    332       7.8824      2.00000
    333       7.9023      2.00000
    334       7.9304      2.00000
    335       7.9670      2.00000
    336       7.9724      2.00000
    337       7.9993      2.00000
    338       8.0113      2.00000
    339       8.0557      2.00000
    340       8.0687      2.00000
    341       8.0971      2.00000
    342       8.1228      2.00000
    343       8.1523      2.00000
    344       8.1878      2.00000
    345       8.2153      2.00000
    346       8.2487      2.00000
    347       8.2734      2.00000
    348       8.3218      2.00000
    349       8.3307      2.00000
    350       8.3565      2.00000
    351       8.3901      2.00000
    352       8.4163      2.00000
    353       8.4457      2.00000
    354       8.4615      2.00000
    355       8.4898      2.00000
    356       8.5150      2.00000
    357       8.5373      2.00000
    358       8.5664      2.00000
    359       8.5909      2.00000
    360       8.6131      2.00000
    361       8.6261      2.00000
    362       8.6516      2.00000
    363       8.6824      2.00000
    364       8.7007      2.00000
    365       8.7395      2.00000
    366       8.7659      2.00000
    367       8.7881      2.00000
    368       8.8156      2.00000
    369       8.8478      2.00000
    370       8.8608      2.00000
    371       8.8869      2.00000
    372       8.8997      2.00000
    373       8.9173      2.00000
    374       8.9583      2.00000
    375       8.9966      2.00000
    376       9.0333      2.00000
    377       9.0723      2.00000
    378       9.1116      1.99998
    379       9.1147      1.99997
    380       9.1330      1.99976
    381       9.1561      1.99743
    382       9.1932      1.95057
    383       9.2110      1.85626
    384       9.2404      1.47159
    385       9.2628      0.99736
    386       9.2924      0.40083
    387       9.3067      0.21314
    388       9.3346      0.04193
    389       9.3640      0.00417
    390       9.3897      0.00033
    391       9.4000      0.00010
    392       9.4287      0.00000
    393       9.4410      0.00000
    394       9.4741      0.00000
    395       9.4919      0.00000
    396       9.5221      0.00000
    397       9.5369      0.00000
    398       9.5503      0.00000
    399       9.5771      0.00000
    400       9.5807      0.00000
    401       9.6254      0.00000
    402       9.6498      0.00000
    403       9.6755      0.00000
    404       9.6875      0.00000
    405       9.6910      0.00000
    406       9.7283      0.00000
    407       9.7476      0.00000
    408       9.7546      0.00000
    409       9.7909      0.00000
    410       9.8025      0.00000
    411       9.8278      0.00000
    412       9.8448      0.00000
    413       9.8678      0.00000
    414       9.8865      0.00000
    415       9.9202      0.00000
    416       9.9358      0.00000
    417       9.9622      0.00000
    418       9.9826      0.00000
    419      10.0184      0.00000
    420      10.0319      0.00000
    421      10.0628      0.00000
    422      10.0711      0.00000
    423      10.1026      0.00000
    424      10.1289      0.00000
    425      10.1395      0.00000
    426      10.1637      0.00000
    427      10.1936      0.00000
    428      10.2122      0.00000
    429      10.2368      0.00000
    430      10.2559      0.00000
    431      10.2760      0.00000
    432      10.2967      0.00000
    433      10.3146      0.00000
    434      10.3176      0.00000
    435      10.3452      0.00000
    436      10.3611      0.00000
    437      10.3831      0.00000
    438      10.3920      0.00000
    439      10.4114      0.00000
    440      10.4378      0.00000
    441      10.4642      0.00000
    442      10.4848      0.00000
    443      10.5202      0.00000
    444      10.5347      0.00000
    445      10.5568      0.00000
    446      10.5770      0.00000
    447      10.5855      0.00000
    448      10.6117      0.00000
    449      10.6263      0.00000
    450      10.6479      0.00000
    451      10.6533      0.00000
    452      10.6801      0.00000
    453      10.6950      0.00000
    454      10.7152      0.00000
    455      10.7370      0.00000
    456      10.7590      0.00000
    457      10.7825      0.00000
    458      10.8206      0.00000
    459      10.8533      0.00000
    460      10.8804      0.00000
    461      10.8933      0.00000
    462      10.8991      0.00000
    463      10.9348      0.00000
    464      10.9626      0.00000

 k-point    41 :      -0.2500    0.5000    0.4000
  band No.  band energies     occupation 
      1     -45.5192      2.00000
      2     -39.4653      2.00000
      3     -39.4245      2.00000
      4     -39.4075      2.00000
      5     -39.3989      2.00000
      6     -39.3969      2.00000
      7     -39.3880      2.00000
      8     -39.3756      2.00000
      9     -39.3666      2.00000
     10     -39.3585      2.00000
     11     -39.3461      2.00000
     12     -39.3378      2.00000
     13     -39.3330      2.00000
     14     -39.3296      2.00000
     15     -39.3212      2.00000
     16     -39.3089      2.00000
     17     -39.3009      2.00000
     18     -39.2958      2.00000
     19     -39.2914      2.00000
     20     -39.2885      2.00000
     21     -39.2836      2.00000
     22     -39.2725      2.00000
     23     -39.2664      2.00000
     24     -39.2588      2.00000
     25     -39.2444      2.00000
     26     -39.2436      2.00000
     27     -39.2390      2.00000
     28     -39.2371      2.00000
     29     -39.2337      2.00000
     30     -39.2299      2.00000
     31     -39.2245      2.00000
     32     -39.2172      2.00000
     33     -39.2114      2.00000
     34     -39.2035      2.00000
     35     -39.1980      2.00000
     36     -39.1877      2.00000
     37     -39.1779      2.00000
     38     -39.1741      2.00000
     39     -39.1643      2.00000
     40     -39.1550      2.00000
     41     -39.1536      2.00000
     42     -39.1492      2.00000
     43     -39.1451      2.00000
     44     -39.1356      2.00000
     45     -39.1278      2.00000
     46     -39.1235      2.00000
     47     -39.1137      2.00000
     48     -39.1075      2.00000
     49     -39.1047      2.00000
     50     -39.0999      2.00000
     51     -39.0972      2.00000
     52     -39.0934      2.00000
     53     -39.0831      2.00000
     54     -39.0711      2.00000
     55     -39.0644      2.00000
     56     -39.0609      2.00000
     57     -39.0311      2.00000
     58     -39.0256      2.00000
     59     -39.0214      2.00000
     60     -39.0197      2.00000
     61     -39.0160      2.00000
     62     -38.9513      2.00000
     63     -38.9136      2.00000
     64     -38.9133      2.00000
     65     -21.6081      2.00000
     66     -21.5850      2.00000
     67     -21.5569      2.00000
     68     -18.0245      2.00000
     69     -17.9705      2.00000
     70     -17.9653      2.00000
     71     -17.9611      2.00000
     72     -17.9440      2.00000
     73     -17.9337      2.00000
     74     -17.9275      2.00000
     75     -17.9209      2.00000
     76     -17.9071      2.00000
     77     -17.9006      2.00000
     78     -17.8945      2.00000
     79     -17.8908      2.00000
     80     -17.8767      2.00000
     81     -17.8711      2.00000
     82     -17.8585      2.00000
     83     -17.8514      2.00000
     84     -17.8501      2.00000
     85     -17.8361      2.00000
     86     -17.8304      2.00000
     87     -17.8239      2.00000
     88     -17.8138      2.00000
     89     -17.8111      2.00000
     90     -17.7976      2.00000
     91     -17.7954      2.00000
     92     -17.7910      2.00000
     93     -17.7793      2.00000
     94     -17.7759      2.00000
     95     -17.7695      2.00000
     96     -17.7653      2.00000
     97     -17.7552      2.00000
     98     -17.7503      2.00000
     99     -17.7437      2.00000
    100     -17.7398      2.00000
    101     -17.7305      2.00000
    102     -17.7275      2.00000
    103     -17.7239      2.00000
    104     -17.7174      2.00000
    105     -17.7132      2.00000
    106     -17.7062      2.00000
    107     -17.6983      2.00000
    108     -17.6913      2.00000
    109     -17.6785      2.00000
    110     -17.6726      2.00000
    111     -17.6627      2.00000
    112     -17.6582      2.00000
    113     -17.6555      2.00000
    114     -17.6441      2.00000
    115     -17.6351      2.00000
    116     -17.6270      2.00000
    117     -17.6169      2.00000
    118     -17.6089      2.00000
    119     -17.6020      2.00000
    120     -17.5736      2.00000
    121     -17.5565      2.00000
    122     -17.5475      2.00000
    123     -17.5406      2.00000
    124     -17.5278      2.00000
    125     -17.5104      2.00000
    126     -17.5034      2.00000
    127     -17.4946      2.00000
    128     -17.4897      2.00000
    129     -17.4783      2.00000
    130     -17.4681      2.00000
    131     -17.4608      2.00000
    132     -17.4508      2.00000
    133     -17.4458      2.00000
    134     -17.4359      2.00000
    135     -17.4283      2.00000
    136     -17.4184      2.00000
    137     -17.4128      2.00000
    138     -17.4004      2.00000
    139     -17.3965      2.00000
    140     -17.3932      2.00000
    141     -17.3857      2.00000
    142     -17.3809      2.00000
    143     -17.3690      2.00000
    144     -17.3586      2.00000
    145     -17.3533      2.00000
    146     -17.3462      2.00000
    147     -17.3427      2.00000
    148     -17.3347      2.00000
    149     -17.3321      2.00000
    150     -17.3226      2.00000
    151     -17.3154      2.00000
    152     -17.3091      2.00000
    153     -17.3012      2.00000
    154     -17.2952      2.00000
    155     -17.2887      2.00000
    156     -17.2798      2.00000
    157     -17.2705      2.00000
    158     -17.2652      2.00000
    159     -17.2607      2.00000
    160     -17.2557      2.00000
    161     -17.2504      2.00000
    162     -17.2443      2.00000
    163     -17.2404      2.00000
    164     -17.2356      2.00000
    165     -17.2304      2.00000
    166     -17.2270      2.00000
    167     -17.2151      2.00000
    168     -17.2057      2.00000
    169     -17.1988      2.00000
    170     -17.1932      2.00000
    171     -17.1864      2.00000
    172     -17.1841      2.00000
    173     -17.1763      2.00000
    174     -17.1702      2.00000
    175     -17.1642      2.00000
    176     -17.1595      2.00000
    177     -17.1588      2.00000
    178     -17.1486      2.00000
    179     -17.1420      2.00000
    180     -17.1374      2.00000
    181     -17.1294      2.00000
    182     -17.1286      2.00000
    183     -17.1248      2.00000
    184     -17.1200      2.00000
    185     -17.1132      2.00000
    186     -17.1049      2.00000
    187     -17.1030      2.00000
    188     -17.0933      2.00000
    189     -17.0872      2.00000
    190     -17.0832      2.00000
    191     -17.0772      2.00000
    192     -17.0725      2.00000
    193     -17.0708      2.00000
    194     -17.0631      2.00000
    195     -17.0581      2.00000
    196     -17.0542      2.00000
    197     -17.0527      2.00000
    198     -17.0452      2.00000
    199     -17.0379      2.00000
    200     -17.0312      2.00000
    201     -17.0259      2.00000
    202     -17.0163      2.00000
    203     -17.0119      2.00000
    204     -17.0110      2.00000
    205     -17.0037      2.00000
    206     -17.0032      2.00000
    207     -16.9979      2.00000
    208     -16.9919      2.00000
    209     -16.9873      2.00000
    210     -16.9793      2.00000
    211     -16.9751      2.00000
    212     -16.9664      2.00000
    213     -16.9618      2.00000
    214     -16.9566      2.00000
    215     -16.9537      2.00000
    216     -16.9476      2.00000
    217     -16.9433      2.00000
    218     -16.9390      2.00000
    219     -16.9344      2.00000
    220     -16.9327      2.00000
    221     -16.9266      2.00000
    222     -16.9196      2.00000
    223     -16.9160      2.00000
    224     -16.9100      2.00000
    225     -16.9066      2.00000
    226     -16.8988      2.00000
    227     -16.8946      2.00000
    228     -16.8904      2.00000
    229     -16.8880      2.00000
    230     -16.8821      2.00000
    231     -16.8714      2.00000
    232     -16.8651      2.00000
    233     -16.8583      2.00000
    234     -16.8531      2.00000
    235     -16.8466      2.00000
    236     -16.8425      2.00000
    237     -16.8340      2.00000
    238     -16.8300      2.00000
    239     -16.8234      2.00000
    240     -16.8186      2.00000
    241     -16.8112      2.00000
    242     -16.8066      2.00000
    243     -16.8029      2.00000
    244     -16.7838      2.00000
    245     -16.7791      2.00000
    246     -16.7664      2.00000
    247     -16.7630      2.00000
    248     -16.7564      2.00000
    249     -16.7518      2.00000
    250     -16.7286      2.00000
    251     -16.7171      2.00000
    252     -16.7075      2.00000
    253     -16.6968      2.00000
    254     -16.6696      2.00000
    255     -16.6500      2.00000
    256     -16.6424      2.00000
    257       4.5457      2.00000
    258       4.5724      2.00000
    259       4.9125      2.00000
    260       4.9357      2.00000
    261       5.0980      2.00000
    262       5.1245      2.00000
    263       5.4149      2.00000
    264       5.4358      2.00000
    265       5.8875      2.00000
    266       5.9034      2.00000
    267       6.0437      2.00000
    268       6.0689      2.00000
    269       6.3005      2.00000
    270       6.3080      2.00000
    271       6.3307      2.00000
    272       6.3425      2.00000
    273       6.3974      2.00000
    274       6.4092      2.00000
    275       6.4366      2.00000
    276       6.4581      2.00000
    277       6.5784      2.00000
    278       6.5996      2.00000
    279       6.6110      2.00000
    280       6.6290      2.00000
    281       6.6499      2.00000
    282       6.6800      2.00000
    283       6.7114      2.00000
    284       6.7362      2.00000
    285       6.7848      2.00000
    286       6.8155      2.00000
    287       6.8498      2.00000
    288       6.8650      2.00000
    289       6.9008      2.00000
    290       6.9285      2.00000
    291       6.9451      2.00000
    292       6.9708      2.00000
    293       6.9943      2.00000
    294       7.0100      2.00000
    295       7.0401      2.00000
    296       7.0522      2.00000
    297       7.0720      2.00000
    298       7.0865      2.00000
    299       7.0919      2.00000
    300       7.1190      2.00000
    301       7.1303      2.00000
    302       7.1483      2.00000
    303       7.1663      2.00000
    304       7.2019      2.00000
    305       7.2245      2.00000
    306       7.2355      2.00000
    307       7.2583      2.00000
    308       7.2851      2.00000
    309       7.3099      2.00000
    310       7.3135      2.00000
    311       7.3356      2.00000
    312       7.3643      2.00000
    313       7.3661      2.00000
    314       7.4243      2.00000
    315       7.4435      2.00000
    316       7.4855      2.00000
    317       7.5051      2.00000
    318       7.5540      2.00000
    319       7.5717      2.00000
    320       7.6139      2.00000
    321       7.6282      2.00000
    322       7.6652      2.00000
    323       7.6974      2.00000
    324       7.7191      2.00000
    325       7.7489      2.00000
    326       7.7748      2.00000
    327       7.7853      2.00000
    328       7.7966      2.00000
    329       7.8267      2.00000
    330       7.8516      2.00000
    331       7.8741      2.00000
    332       7.8932      2.00000
    333       7.9141      2.00000
    334       7.9368      2.00000
    335       7.9536      2.00000
    336       7.9676      2.00000
    337       7.9988      2.00000
    338       8.0273      2.00000
    339       8.0464      2.00000
    340       8.0727      2.00000
    341       8.0884      2.00000
    342       8.1203      2.00000
    343       8.1300      2.00000
    344       8.1901      2.00000
    345       8.2176      2.00000
    346       8.2241      2.00000
    347       8.2745      2.00000
    348       8.3205      2.00000
    349       8.3514      2.00000
    350       8.3708      2.00000
    351       8.3843      2.00000
    352       8.4186      2.00000
    353       8.4527      2.00000
    354       8.4639      2.00000
    355       8.4725      2.00000
    356       8.4969      2.00000
    357       8.5528      2.00000
    358       8.5667      2.00000
    359       8.5966      2.00000
    360       8.6266      2.00000
    361       8.6418      2.00000
    362       8.6695      2.00000
    363       8.6916      2.00000
    364       8.7060      2.00000
    365       8.7336      2.00000
    366       8.7657      2.00000
    367       8.7883      2.00000
    368       8.8148      2.00000
    369       8.8297      2.00000
    370       8.8593      2.00000
    371       8.8885      2.00000
    372       8.9253      2.00000
    373       8.9382      2.00000
    374       8.9614      2.00000
    375       8.9986      2.00000
    376       9.0272      2.00000
    377       9.0638      2.00000
    378       9.0818      2.00000
    379       9.1048      1.99999
    380       9.1333      1.99975
    381       9.1501      1.99855
    382       9.1942      1.94742
    383       9.2056      1.89366
    384       9.2420      1.44178
    385       9.2681      0.87926
    386       9.2827      0.57213
    387       9.3143      0.14443
    388       9.3367      0.03630
    389       9.3678      0.00295
    390       9.3979      0.00013
    391       9.4128      0.00002
    392       9.4313      0.00000
    393       9.4411      0.00000
    394       9.4684      0.00000
    395       9.4766      0.00000
    396       9.5181      0.00000
    397       9.5351      0.00000
    398       9.5457      0.00000
    399       9.5684      0.00000
    400       9.5811      0.00000
    401       9.6152      0.00000
    402       9.6396      0.00000
    403       9.6598      0.00000
    404       9.6720      0.00000
    405       9.6969      0.00000
    406       9.7226      0.00000
    407       9.7457      0.00000
    408       9.7526      0.00000
    409       9.7725      0.00000
    410       9.8195      0.00000
    411       9.8349      0.00000
    412       9.8562      0.00000
    413       9.8714      0.00000
    414       9.8852      0.00000
    415       9.9081      0.00000
    416       9.9439      0.00000
    417       9.9592      0.00000
    418       9.9708      0.00000
    419      10.0215      0.00000
    420      10.0499      0.00000
    421      10.0590      0.00000
    422      10.0789      0.00000
    423      10.1073      0.00000
    424      10.1236      0.00000
    425      10.1592      0.00000
    426      10.1659      0.00000
    427      10.1932      0.00000
    428      10.2137      0.00000
    429      10.2291      0.00000
    430      10.2602      0.00000
    431      10.2710      0.00000
    432      10.2963      0.00000
    433      10.3041      0.00000
    434      10.3306      0.00000
    435      10.3520      0.00000
    436      10.3649      0.00000
    437      10.3777      0.00000
    438      10.4006      0.00000
    439      10.4331      0.00000
    440      10.4431      0.00000
    441      10.4907      0.00000
    442      10.5045      0.00000
    443      10.5158      0.00000
    444      10.5320      0.00000
    445      10.5638      0.00000
    446      10.5656      0.00000
    447      10.5748      0.00000
    448      10.6028      0.00000
    449      10.6156      0.00000
    450      10.6411      0.00000
    451      10.6695      0.00000
    452      10.6832      0.00000
    453      10.6937      0.00000
    454      10.7221      0.00000
    455      10.7445      0.00000
    456      10.7620      0.00000
    457      10.7847      0.00000
    458      10.8085      0.00000
    459      10.8235      0.00000
    460      10.8505      0.00000
    461      10.8775      0.00000
    462      10.8968      0.00000
    463      10.9340      0.00000
    464      10.9665      0.00000

 k-point    42 :       0.5000    0.5000    0.4000
  band No.  band energies     occupation 
      1     -45.5192      2.00000
      2     -39.4652      2.00000
      3     -39.4238      2.00000
      4     -39.4083      2.00000
      5     -39.3996      2.00000
      6     -39.3960      2.00000
      7     -39.3878      2.00000
      8     -39.3755      2.00000
      9     -39.3681      2.00000
     10     -39.3579      2.00000
     11     -39.3463      2.00000
     12     -39.3372      2.00000
     13     -39.3343      2.00000
     14     -39.3283      2.00000
     15     -39.3230      2.00000
     16     -39.3075      2.00000
     17     -39.3003      2.00000
     18     -39.2963      2.00000
     19     -39.2916      2.00000
     20     -39.2888      2.00000
     21     -39.2824      2.00000
     22     -39.2731      2.00000
     23     -39.2665      2.00000
     24     -39.2588      2.00000
     25     -39.2442      2.00000
     26     -39.2420      2.00000
     27     -39.2388      2.00000
     28     -39.2377      2.00000
     29     -39.2319      2.00000
     30     -39.2308      2.00000
     31     -39.2246      2.00000
     32     -39.2177      2.00000
     33     -39.2135      2.00000
     34     -39.2036      2.00000
     35     -39.1979      2.00000
     36     -39.1867      2.00000
     37     -39.1792      2.00000
     38     -39.1731      2.00000
     39     -39.1645      2.00000
     40     -39.1560      2.00000
     41     -39.1536      2.00000
     42     -39.1480      2.00000
     43     -39.1453      2.00000
     44     -39.1365      2.00000
     45     -39.1271      2.00000
     46     -39.1235      2.00000
     47     -39.1136      2.00000
     48     -39.1065      2.00000
     49     -39.1050      2.00000
     50     -39.1002      2.00000
     51     -39.0978      2.00000
     52     -39.0930      2.00000
     53     -39.0832      2.00000
     54     -39.0710      2.00000
     55     -39.0644      2.00000
     56     -39.0608      2.00000
     57     -39.0312      2.00000
     58     -39.0256      2.00000
     59     -39.0212      2.00000
     60     -39.0198      2.00000
     61     -39.0160      2.00000
     62     -38.9513      2.00000
     63     -38.9136      2.00000
     64     -38.9133      2.00000
     65     -21.6081      2.00000
     66     -21.5850      2.00000
     67     -21.5569      2.00000
     68     -18.0233      2.00000
     69     -17.9686      2.00000
     70     -17.9645      2.00000
     71     -17.9568      2.00000
     72     -17.9411      2.00000
     73     -17.9307      2.00000
     74     -17.9260      2.00000
     75     -17.9143      2.00000
     76     -17.9050      2.00000
     77     -17.9015      2.00000
     78     -17.8974      2.00000
     79     -17.8812      2.00000
     80     -17.8802      2.00000
     81     -17.8751      2.00000
     82     -17.8600      2.00000
     83     -17.8533      2.00000
     84     -17.8478      2.00000
     85     -17.8379      2.00000
     86     -17.8263      2.00000
     87     -17.8192      2.00000
     88     -17.8151      2.00000
     89     -17.8114      2.00000
     90     -17.8061      2.00000
     91     -17.7960      2.00000
     92     -17.7907      2.00000
     93     -17.7815      2.00000
     94     -17.7763      2.00000
     95     -17.7710      2.00000
     96     -17.7679      2.00000
     97     -17.7652      2.00000
     98     -17.7511      2.00000
     99     -17.7425      2.00000
    100     -17.7408      2.00000
    101     -17.7294      2.00000
    102     -17.7271      2.00000
    103     -17.7234      2.00000
    104     -17.7200      2.00000
    105     -17.7099      2.00000
    106     -17.6975      2.00000
    107     -17.6903      2.00000
    108     -17.6810      2.00000
    109     -17.6731      2.00000
    110     -17.6672      2.00000
    111     -17.6611      2.00000
    112     -17.6565      2.00000
    113     -17.6471      2.00000
    114     -17.6398      2.00000
    115     -17.6326      2.00000
    116     -17.6252      2.00000
    117     -17.6151      2.00000
    118     -17.6070      2.00000
    119     -17.6018      2.00000
    120     -17.5934      2.00000
    121     -17.5823      2.00000
    122     -17.5746      2.00000
    123     -17.5598      2.00000
    124     -17.5414      2.00000
    125     -17.5265      2.00000
    126     -17.5156      2.00000
    127     -17.5074      2.00000
    128     -17.4969      2.00000
    129     -17.4843      2.00000
    130     -17.4787      2.00000
    131     -17.4644      2.00000
    132     -17.4565      2.00000
    133     -17.4451      2.00000
    134     -17.4418      2.00000
    135     -17.4328      2.00000
    136     -17.4257      2.00000
    137     -17.4077      2.00000
    138     -17.4040      2.00000
    139     -17.3983      2.00000
    140     -17.3863      2.00000
    141     -17.3819      2.00000
    142     -17.3770      2.00000
    143     -17.3678      2.00000
    144     -17.3528      2.00000
    145     -17.3461      2.00000
    146     -17.3389      2.00000
    147     -17.3303      2.00000
    148     -17.3274      2.00000
    149     -17.3169      2.00000
    150     -17.3123      2.00000
    151     -17.3072      2.00000
    152     -17.3024      2.00000
    153     -17.2926      2.00000
    154     -17.2886      2.00000
    155     -17.2801      2.00000
    156     -17.2759      2.00000
    157     -17.2664      2.00000
    158     -17.2592      2.00000
    159     -17.2565      2.00000
    160     -17.2525      2.00000
    161     -17.2495      2.00000
    162     -17.2410      2.00000
    163     -17.2383      2.00000
    164     -17.2275      2.00000
    165     -17.2227      2.00000
    166     -17.2196      2.00000
    167     -17.2130      2.00000
    168     -17.2032      2.00000
    169     -17.1981      2.00000
    170     -17.1906      2.00000
    171     -17.1839      2.00000
    172     -17.1788      2.00000
    173     -17.1760      2.00000
    174     -17.1676      2.00000
    175     -17.1638      2.00000
    176     -17.1607      2.00000
    177     -17.1549      2.00000
    178     -17.1492      2.00000
    179     -17.1426      2.00000
    180     -17.1380      2.00000
    181     -17.1354      2.00000
    182     -17.1289      2.00000
    183     -17.1265      2.00000
    184     -17.1185      2.00000
    185     -17.1159      2.00000
    186     -17.1061      2.00000
    187     -17.1031      2.00000
    188     -17.0969      2.00000
    189     -17.0917      2.00000
    190     -17.0883      2.00000
    191     -17.0798      2.00000
    192     -17.0737      2.00000
    193     -17.0692      2.00000
    194     -17.0684      2.00000
    195     -17.0613      2.00000
    196     -17.0575      2.00000
    197     -17.0506      2.00000
    198     -17.0423      2.00000
    199     -17.0380      2.00000
    200     -17.0364      2.00000
    201     -17.0252      2.00000
    202     -17.0211      2.00000
    203     -17.0135      2.00000
    204     -17.0064      2.00000
    205     -17.0007      2.00000
    206     -16.9983      2.00000
    207     -16.9955      2.00000
    208     -16.9905      2.00000
    209     -16.9870      2.00000
    210     -16.9799      2.00000
    211     -16.9741      2.00000
    212     -16.9711      2.00000
    213     -16.9640      2.00000
    214     -16.9567      2.00000
    215     -16.9553      2.00000
    216     -16.9509      2.00000
    217     -16.9445      2.00000
    218     -16.9405      2.00000
    219     -16.9354      2.00000
    220     -16.9306      2.00000
    221     -16.9245      2.00000
    222     -16.9218      2.00000
    223     -16.9177      2.00000
    224     -16.9148      2.00000
    225     -16.9074      2.00000
    226     -16.9017      2.00000
    227     -16.8983      2.00000
    228     -16.8910      2.00000
    229     -16.8854      2.00000
    230     -16.8834      2.00000
    231     -16.8709      2.00000
    232     -16.8612      2.00000
    233     -16.8569      2.00000
    234     -16.8544      2.00000
    235     -16.8477      2.00000
    236     -16.8437      2.00000
    237     -16.8350      2.00000
    238     -16.8311      2.00000
    239     -16.8256      2.00000
    240     -16.8171      2.00000
    241     -16.8104      2.00000
    242     -16.8069      2.00000
    243     -16.8035      2.00000
    244     -16.7854      2.00000
    245     -16.7797      2.00000
    246     -16.7667      2.00000
    247     -16.7613      2.00000
    248     -16.7582      2.00000
    249     -16.7540      2.00000
    250     -16.7285      2.00000
    251     -16.7170      2.00000
    252     -16.7075      2.00000
    253     -16.6967      2.00000
    254     -16.6681      2.00000
    255     -16.6503      2.00000
    256     -16.6448      2.00000
    257       4.7462      2.00000
    258       4.7714      2.00000
    259       4.7891      2.00000
    260       4.8060      2.00000
    261       5.0999      2.00000
    262       5.1243      2.00000
    263       5.1375      2.00000
    264       5.1547      2.00000
    265       6.1873      2.00000
    266       6.2091      2.00000
    267       6.2199      2.00000
    268       6.2325      2.00000
    269       6.2488      2.00000
    270       6.2698      2.00000
    271       6.2856      2.00000
    272       6.2991      2.00000
    273       6.4747      2.00000
    274       6.4831      2.00000
    275       6.5203      2.00000
    276       6.5270      2.00000
    277       6.5452      2.00000
    278       6.5530      2.00000
    279       6.5713      2.00000
    280       6.5866      2.00000
    281       6.6784      2.00000
    282       6.7262      2.00000
    283       6.7290      2.00000
    284       6.7547      2.00000
    285       6.7700      2.00000
    286       6.7924      2.00000
    287       6.8048      2.00000
    288       6.8254      2.00000
    289       6.8351      2.00000
    290       6.8481      2.00000
    291       6.8720      2.00000
    292       6.8797      2.00000
    293       6.8990      2.00000
    294       6.9162      2.00000
    295       6.9286      2.00000
    296       6.9742      2.00000
    297       7.0337      2.00000
    298       7.0740      2.00000
    299       7.0909      2.00000
    300       7.1074      2.00000
    301       7.1326      2.00000
    302       7.1460      2.00000
    303       7.1696      2.00000
    304       7.1902      2.00000
    305       7.2189      2.00000
    306       7.2392      2.00000
    307       7.2696      2.00000
    308       7.2811      2.00000
    309       7.2927      2.00000
    310       7.3517      2.00000
    311       7.3752      2.00000
    312       7.4000      2.00000
    313       7.4297      2.00000
    314       7.4598      2.00000
    315       7.4844      2.00000
    316       7.5088      2.00000
    317       7.5264      2.00000
    318       7.5382      2.00000
    319       7.5636      2.00000
    320       7.5887      2.00000
    321       7.6249      2.00000
    322       7.6456      2.00000
    323       7.6580      2.00000
    324       7.6948      2.00000
    325       7.7127      2.00000
    326       7.7360      2.00000
    327       7.7608      2.00000
    328       7.7902      2.00000
    329       7.8178      2.00000
    330       7.8405      2.00000
    331       7.8540      2.00000
    332       7.8684      2.00000
    333       7.8947      2.00000
    334       7.9103      2.00000
    335       7.9489      2.00000
    336       7.9605      2.00000
    337       7.9721      2.00000
    338       7.9929      2.00000
    339       8.0161      2.00000
    340       8.0249      2.00000
    341       8.0519      2.00000
    342       8.0690      2.00000
    343       8.1246      2.00000
    344       8.1695      2.00000
    345       8.2449      2.00000
    346       8.2823      2.00000
    347       8.3029      2.00000
    348       8.3380      2.00000
    349       8.3724      2.00000
    350       8.3793      2.00000
    351       8.4154      2.00000
    352       8.4586      2.00000
    353       8.4734      2.00000
    354       8.5163      2.00000
    355       8.5310      2.00000
    356       8.5617      2.00000
    357       8.5685      2.00000
    358       8.5996      2.00000
    359       8.6195      2.00000
    360       8.6455      2.00000
    361       8.6620      2.00000
    362       8.6864      2.00000
    363       8.6959      2.00000
    364       8.7381      2.00000
    365       8.7494      2.00000
    366       8.7643      2.00000
    367       8.7844      2.00000
    368       8.7950      2.00000
    369       8.8161      2.00000
    370       8.8639      2.00000
    371       8.8833      2.00000
    372       8.9013      2.00000
    373       8.9171      2.00000
    374       8.9349      2.00000
    375       8.9703      2.00000
    376       8.9959      2.00000
    377       9.0474      2.00000
    378       9.0745      2.00000
    379       9.1079      1.99999
    380       9.1271      1.99987
    381       9.1665      1.99351
    382       9.2040      1.90327
    383       9.2147      1.82580
    384       9.2291      1.65849
    385       9.2506      1.26754
    386       9.2726      0.77968
    387       9.2948      0.36365
    388       9.3247      0.07961
    389       9.3538      0.01001
    390       9.3901      0.00031
    391       9.4197      0.00001
    392       9.4490      0.00000
    393       9.4592      0.00000
    394       9.4732      0.00000
    395       9.4996      0.00000
    396       9.5267      0.00000
    397       9.5508      0.00000
    398       9.5725      0.00000
    399       9.5904      0.00000
    400       9.6161      0.00000
    401       9.6483      0.00000
    402       9.6632      0.00000
    403       9.6778      0.00000
    404       9.7139      0.00000
    405       9.7306      0.00000
    406       9.7537      0.00000
    407       9.7643      0.00000
    408       9.7949      0.00000
    409       9.7977      0.00000
    410       9.8373      0.00000
    411       9.8651      0.00000
    412       9.8756      0.00000
    413       9.9065      0.00000
    414       9.9197      0.00000
    415       9.9456      0.00000
    416       9.9644      0.00000
    417       9.9940      0.00000
    418       9.9969      0.00000
    419      10.0201      0.00000
    420      10.0461      0.00000
    421      10.0643      0.00000
    422      10.0771      0.00000
    423      10.0976      0.00000
    424      10.1205      0.00000
    425      10.1395      0.00000
    426      10.1543      0.00000
    427      10.1681      0.00000
    428      10.1881      0.00000
    429      10.2219      0.00000
    430      10.2475      0.00000
    431      10.2634      0.00000
    432      10.2798      0.00000
    433      10.3049      0.00000
    434      10.3096      0.00000
    435      10.3287      0.00000
    436      10.3558      0.00000
    437      10.3772      0.00000
    438      10.3896      0.00000
    439      10.4180      0.00000
    440      10.4329      0.00000
    441      10.4516      0.00000
    442      10.4665      0.00000
    443      10.4992      0.00000
    444      10.5130      0.00000
    445      10.5155      0.00000
    446      10.5529      0.00000
    447      10.5795      0.00000
    448      10.5967      0.00000
    449      10.6085      0.00000
    450      10.6211      0.00000
    451      10.6408      0.00000
    452      10.6844      0.00000
    453      10.6924      0.00000
    454      10.7111      0.00000
    455      10.7299      0.00000
    456      10.7679      0.00000
    457      10.7825      0.00000
    458      10.7944      0.00000
    459      10.8226      0.00000
    460      10.8270      0.00000
    461      10.8554      0.00000
    462      10.8944      0.00000
    463      10.9269      0.00000
    464      10.9431      0.00000


--------------------------------------------------------------------------------------------------------


 soft charge-density along one line, spin component           1
         0         1         2         3         4         5         6         7         8         9
 total charge-density along one line
 
 pseudopotential strength for first ion, spin component:           1
 13.048 -25.441   0.001   0.002   0.000  -0.005  -0.012  -0.000
-25.441  13.262   0.006   0.015  -0.000  -0.001  -0.003  -0.000
  0.001   0.006  -6.297   0.000  -0.000   4.848  -0.002  -0.001
  0.002   0.015   0.000  -6.305  -0.001  -0.002   4.846  -0.002
  0.000  -0.000  -0.000  -0.001  -6.293  -0.001  -0.002   4.841
 -0.005  -0.001   4.848  -0.002  -0.001   8.555   0.002   0.001
 -0.012  -0.003  -0.002   4.846  -0.002   0.002   8.557   0.001
 -0.000  -0.000  -0.001  -0.002   4.841   0.001   0.001   8.560
  0.000   0.001   0.001   0.000   0.003  -0.001  -0.000  -0.003
  0.000   0.001   0.005   0.003   0.000  -0.006  -0.003  -0.000
 -0.005   0.001  -0.001   0.007  -0.001   0.001  -0.007   0.001
 -0.000   0.001   0.000  -0.001   0.006  -0.000   0.001  -0.006
  0.002   0.002  -0.001   0.000  -0.001   0.002  -0.000   0.001
  0.000   0.001   0.002   0.000   0.004  -0.001  -0.000  -0.004
  0.001   0.002   0.007   0.004   0.000  -0.007  -0.003  -0.000
 -0.006   0.001  -0.001   0.009  -0.001   0.002  -0.010   0.001
 -0.000   0.002   0.000  -0.001   0.008  -0.000   0.001  -0.008
  0.003   0.003  -0.002   0.000  -0.001   0.002  -0.000   0.001
 total augmentation occupancy for first ion, spin component:           1
  1.998  -0.027   0.000   0.001   0.000  -0.000   0.000   0.000   0.005   0.011   0.020   0.010   0.007  -0.004  -0.009  -0.015
 -0.027   1.551  -0.001   0.003   0.002  -0.008  -0.020  -0.004  -0.002   0.048   0.301   0.072   0.028   0.014  -0.024  -0.155
  0.000  -0.001   2.004  -0.000  -0.000  -0.026   0.001   0.001  -0.021   0.017   0.006  -0.011   0.011   0.017  -0.009  -0.004
  0.001   0.003  -0.000   2.000  -0.001   0.001  -0.020   0.001  -0.008  -0.013   0.006   0.020  -0.010   0.007   0.010   0.001
  0.000   0.002  -0.000  -0.001   2.004   0.001   0.001  -0.028   0.001  -0.007   0.009  -0.009   0.011   0.009   0.006  -0.010
 -0.000  -0.008  -0.026   0.001   0.001   0.036   0.000  -0.001  -0.009  -0.049   0.001   0.003  -0.028   0.002   0.026  -0.002
  0.000  -0.020   0.001  -0.020   0.001   0.000   0.032  -0.001  -0.002  -0.011  -0.065   0.003   0.006   0.000   0.006   0.034
  0.000  -0.004   0.001   0.001  -0.028  -0.001  -0.001   0.039  -0.067  -0.005   0.017  -0.026   0.007   0.031   0.002  -0.006
  0.005  -0.002  -0.021  -0.008   0.001  -0.009  -0.002  -0.067   3.701   0.141   0.088   0.054   0.030  -1.889  -0.073  -0.049
  0.011   0.048   0.017  -0.013  -0.007  -0.049  -0.011  -0.005   0.141   3.766   0.009   0.101  -0.162  -0.073  -1.956   0.005
  0.020   0.301   0.006   0.006   0.009   0.001  -0.065   0.017   0.088   0.009   4.583   0.009  -0.191  -0.049   0.005  -2.372
  0.010   0.072  -0.011   0.020  -0.009   0.003   0.003  -0.026   0.054   0.101   0.009   3.677   0.088  -0.028  -0.042   0.004
  0.007   0.028   0.011  -0.010   0.011  -0.028   0.006   0.007   0.030  -0.162  -0.191   0.088   3.565  -0.006   0.092   0.108
 -0.004   0.014   0.017   0.007   0.009   0.002   0.000   0.031  -1.889  -0.073  -0.049  -0.028  -0.006   0.976   0.038   0.027
 -0.009  -0.024  -0.009   0.010   0.006   0.026   0.006   0.002  -0.073  -1.956   0.005  -0.042   0.092   0.038   1.027  -0.005
 -0.015  -0.155  -0.004   0.001  -0.010  -0.002   0.034  -0.006  -0.049   0.005  -2.372   0.004   0.108   0.027  -0.005   1.243
 -0.008  -0.037   0.007  -0.015   0.006  -0.002   0.000   0.015  -0.029  -0.042   0.004  -1.901  -0.054   0.016   0.017  -0.005
 -0.006  -0.018  -0.002   0.006  -0.009   0.011  -0.004  -0.003  -0.006   0.093   0.109  -0.054  -1.813  -0.002  -0.052  -0.060


------------------------ aborting loop because EDIFF is reached ----------------------------------------





 total charge

# of ion       s       p       d       tot
------------------------------------------
    1        2.243   5.953   1.728   9.924
    2        2.231   5.952   1.659   9.842
    3        2.227   5.955   1.639   9.822
    4        2.245   5.953   1.772   9.970
    5        2.244   5.960   1.727   9.931
    6        2.230   5.952   1.656   9.839
    7        2.250   5.955   1.807  10.013
    8        2.256   5.959   1.783   9.999
    9        2.242   5.954   1.727   9.923
   10        2.236   5.954   1.678   9.867
   11        2.247   5.959   1.714   9.920
   12        2.242   5.953   1.737   9.933
   13        2.243   5.953   1.725   9.920
   14        2.232   5.954   1.662   9.848
   15        2.236   5.952   1.686   9.873
   16        2.251   5.958   1.744   9.952
   17        2.243   5.957   1.715   9.915
   18        2.232   5.953   1.697   9.882
   19        2.238   5.959   1.684   9.881
   20        2.234   5.950   1.711   9.895
   21        2.235   5.950   1.714   9.899
   22        2.249   5.953   1.799  10.001
   23        2.233   5.957   1.638   9.828
   24        2.243   5.952   1.754   9.949
   25        2.236   5.954   1.699   9.890
   26        2.257   5.959   1.814  10.030
   27        2.236   5.952   1.667   9.855
   28        2.246   5.962   1.720   9.928
   29        2.261   5.957   1.830  10.048
   30        2.251   5.955   1.784   9.991
   31        2.236   5.958   1.698   9.891
   32        2.247   5.954   1.760   9.961
   33        2.238   5.956   1.705   9.898
   34        2.243   5.959   1.700   9.902
   35        2.234   5.954   1.680   9.869
   36        2.234   5.954   1.664   9.852
   37        2.246   5.954   1.724   9.924
   38        2.247   5.958   1.737   9.942
   39        2.237   5.957   1.673   9.867
   40        2.241   5.955   1.730   9.926
   41        2.242   5.956   1.715   9.913
   42        2.234   5.957   1.655   9.847
   43        2.238   5.955   1.690   9.882
   44        2.238   5.954   1.728   9.920
   45        2.249   5.957   1.763   9.969
   46        2.252   5.956   1.770   9.978
   47        2.235   5.954   1.680   9.869
   48        2.250   5.961   1.773   9.984
   49        2.243   5.957   1.730   9.930
   50        2.246   5.953   1.753   9.953
   51        2.252   5.958   1.759   9.969
   52        2.235   5.955   1.671   9.861
   53        2.240   5.959   1.660   9.859
   54        2.254   5.957   1.779   9.989
   55        2.233   5.952   1.653   9.838
   56        2.239   5.953   1.676   9.868
   57        2.247   5.958   1.721   9.926
   58        2.238   5.963   1.685   9.885
   59        2.239   5.953   1.733   9.925
   60        2.245   5.954   1.738   9.937
   61        2.242   5.958   1.714   9.915
   62        2.232   5.952   1.680   9.864
   63        2.246   5.954   1.753   9.953
   64        2.212   5.969   2.399  10.579
--------------------------------------------------
tot        143.432 381.161 110.622 635.215
 
    CHARGE:  cpu time      2.5392: real time      2.5394
    FORLOC:  cpu time      0.0241: real time      0.0241
    FORNL :  cpu time     68.0902: real time     68.0972
    STRESS:  cpu time    101.7550: real time    101.7797
    FORCOR:  cpu time      0.1049: real time      0.1049
    FORHAR:  cpu time      0.0360: real time      0.0360
    MIXING:  cpu time      0.0068: real time      0.0068
    OFIELD:  cpu time      0.0001: real time      0.0001

 ---------------------------------------------------------------------------------------------

         DFTD3 V3.0 Rev 1        
 DF pbe       
 parameters
 k1-k3        =   16.0000    1.3333   -4.0000
 Edisp (eV)  -35.17722

 E6    (eV) :   -17.1199
 E8    (eV) :   -18.0573
 % E8        : 51.33
    FORVDW:  cpu time      0.2398: real time      0.2434

  FORCE on cell =-STRESS in cart. coord.  units (eV):
  Direction    XX          YY          ZZ          XY          YZ          ZX
  --------------------------------------------------------------------------------------
  Alpha Z  3794.98599  3794.98599  3794.98599
  Ewald  -22767.63376-22615.87397-22168.10502    30.94498   -52.69471  -125.85699
  Hartree  4552.23270  4616.87621  4829.04521     4.74366   -38.74814   -71.30521
  E(xc)   -3277.57141 -3277.17580 -3276.30762     0.14927    -0.06626    -0.16979
  Local    3699.20741  3485.80425  2852.48633   -34.88815    92.85727   196.37539
  n-local -1056.18120 -1073.17121 -1137.98603    -7.14025     1.66851     3.17313
  augment   112.44958   115.18120   121.62273     1.08802    -0.48544    -0.78154
  Kinetic 14984.43464 14999.97625 15036.07855     7.51322    -3.59317    -3.68370
  Fock        0.00000     0.00000     0.00000     0.00000     0.00000     0.00000
  vdW       -36.62325   -36.69157   -36.73586    -0.03089     0.00560     0.00180
  -------------------------------------------------------------------------------------
  Total       5.30070     9.91136    15.08428     2.37985    -1.05634    -2.24691
  in kB       5.91116    11.05280    16.82146     2.65393    -1.17800    -2.50567
  external pressure =       11.26 kB  Pullay stress =        0.00 kB


 VOLUME and BASIS-vectors are now :
 -----------------------------------------------------------------------------
  energy-cutoff  :      520.00
  volume of cell :     1436.72
      direct lattice vectors                 reciprocal lattice vectors
    12.743897884  0.000000039  0.000000000     0.078468928  0.000000014  0.000000000
    -0.000001933 11.031495272  0.000000000    -0.000000000  0.090649543  0.000000000
     0.000000000  0.000000000 10.219619642     0.000000000  0.000000000  0.097851000

  length of vectors
    12.743897884 11.031495272 10.219619642     0.078468928  0.090649543  0.097851000


 FORCES acting on ions
    electron-ion (+dipol)            ewald-force                    non-local-force                 convergence-correction
 -----------------------------------------------------------------------------------------------
   -.221E+02 -.327E+02 -.734E+02   0.220E+02 0.330E+02 0.741E+02   0.202E+00 0.135E+00 0.694E+00   -.375E-02 0.805E-03 -.863E-03
   -.564E+02 0.606E+02 -.106E+02   0.569E+02 -.608E+02 0.112E+02   0.577E-01 -.562E+00 -.330E+00   -.238E-02 0.760E-03 0.700E-03
   0.513E+02 0.446E+02 0.925E+02   -.517E+02 -.449E+02 -.935E+02   -.462E+00 -.497E+00 -.372E+00   0.330E-04 -.952E-03 -.605E-04
   0.959E+02 -.128E+02 -.832E+02   -.961E+02 0.139E+02 0.838E+02   -.923E+00 -.834E+00 0.253E+00   0.414E-02 -.123E-02 0.166E-03
   0.781E+02 -.645E+02 0.206E+02   -.779E+02 0.658E+02 -.208E+02   -.163E+00 0.246E+00 -.586E+00   0.124E-02 -.124E-03 -.824E-03
   0.388E+02 0.340E+02 0.565E+02   -.383E+02 -.342E+02 -.574E+02   -.216E+00 0.123E+00 -.121E+00   0.205E-02 0.468E-03 0.897E-03
   0.163E+02 0.829E+02 -.171E+02   -.162E+02 -.842E+02 0.179E+02   -.945E-01 -.151E+00 -.587E-01   0.233E-02 0.107E-02 -.859E-03
   -.198E+02 -.343E+02 -.308E+02   0.199E+02 0.348E+02 0.311E+02   0.119E+00 0.802E-01 0.859E-01   0.126E-02 0.644E-03 -.300E-03
   0.428E+02 0.799E+02 -.360E+01   -.422E+02 -.804E+02 0.368E+01   -.377E+00 -.498E+00 -.709E-02   0.563E-03 0.126E-02 0.578E-03
   -.496E+02 0.401E+02 -.196E+02   0.501E+02 -.402E+02 0.192E+02   0.362E+00 -.481E-01 0.260E+00   -.539E-03 -.583E-03 -.600E-03
   0.397E+02 -.112E+03 -.792E+02   -.402E+02 0.111E+03 0.797E+02   -.285E+00 0.127E+01 0.919E+00   -.374E-02 -.144E-02 0.118E-02
   -.541E+02 0.889E+02 0.707E+01   0.546E+02 -.892E+02 -.706E+01   0.638E-01 -.990E+00 -.264E+00   0.166E-02 0.110E-02 -.419E-03
   -.771E+02 0.444E+02 -.401E+02   0.776E+02 -.445E+02 0.399E+02   0.394E+00 -.825E-01 0.412E+00   -.376E-03 0.146E-02 0.424E-03
   -.118E+02 -.645E+02 -.551E+02   0.114E+02 0.650E+02 0.553E+02   -.194E+00 0.422E+00 0.692E+00   -.160E-02 -.149E-02 -.686E-03
   -.428E+02 -.965E+02 -.349E+02   0.424E+02 0.967E+02 0.349E+02   0.589E+00 0.872E+00 0.751E-01   -.761E-03 -.171E-02 0.786E-03
   -.153E+03 -.729E+02 0.210E+02   0.153E+03 0.736E+02 -.207E+02   0.133E+01 0.414E+00 -.490E-01   -.267E-02 -.405E-02 -.101E-02
   -.980E+02 -.341E+02 -.355E+02   0.986E+02 0.342E+02 0.351E+02   0.148E+00 0.281E+00 0.170E+00   -.113E-02 -.129E-02 0.120E-02
   -.619E+02 0.489E+02 -.111E+02   0.624E+02 -.487E+02 0.118E+02   0.220E+00 -.518E+00 -.623E-01   -.274E-02 0.468E-02 0.106E-03
   -.305E+02 -.247E+02 -.919E+02   0.307E+02 0.249E+02 0.922E+02   0.140E+00 0.442E+00 0.894E+00   -.800E-03 0.186E-02 -.455E-03
   0.142E+03 -.736E+01 0.321E+01   -.144E+03 0.708E+01 -.318E+01   -.554E+00 0.129E-01 -.176E+00   0.731E-03 -.145E-02 -.105E-02
   -.242E+02 0.106E+03 0.147E+02   0.249E+02 -.107E+03 -.145E+02   -.527E-01 0.144E+00 -.500E+00   0.139E-02 0.335E-02 0.997E-03
   0.125E+03 -.304E+02 -.190E+02   -.126E+03 0.315E+02 0.203E+02   -.821E+00 -.315E+00 -.453E+00   0.302E-02 0.141E-02 -.240E-03
   -.106E+02 -.951E+02 -.115E+03   0.106E+02 0.945E+02 0.115E+03   0.188E-01 0.963E+00 0.122E+01   0.304E-02 -.336E-02 -.357E-03
   -.274E+02 -.348E+02 -.296E+02   0.286E+02 0.342E+02 0.300E+02   -.933E-01 0.565E+00 0.279E+00   0.143E-02 -.256E-03 -.112E-02
   0.121E+03 -.242E+02 0.604E+02   -.122E+03 0.243E+02 -.607E+02   -.857E+00 0.629E+00 -.988E+00   0.293E-03 0.186E-02 0.825E-03
   0.552E+02 0.860E+02 -.799E+02   -.564E+02 -.876E+02 0.795E+02   0.125E+00 -.234E+00 0.123E+01   -.904E-03 0.109E-03 -.109E-03
   0.236E+02 -.285E+02 -.725E+02   -.245E+02 0.287E+02 0.733E+02   0.286E+00 -.486E-01 0.448E+00   -.192E-02 -.285E-02 0.505E-03
   0.428E+02 -.782E+02 0.202E+02   -.424E+02 0.781E+02 -.208E+02   -.889E+00 0.449E+00 0.129E+00   0.182E-02 -.192E-02 -.116E-02
   -.178E+00 0.212E+02 -.858E+02   0.192E+00 -.217E+02 0.871E+02   -.217E-01 -.352E+00 0.546E+00   -.720E-03 -.129E-02 0.141E-02
   -.102E+03 0.488E+02 -.947E+02   0.104E+03 -.486E+02 0.950E+02   0.623E-01 0.216E+00 0.879E+00   0.165E-02 0.171E-02 0.298E-04
   0.268E+02 0.796E+02 0.708E+02   -.271E+02 -.799E+02 -.720E+02   0.713E-01 -.335E+00 -.412E+00   -.606E-03 0.137E-02 0.101E-03
   -.105E+03 -.594E+02 0.661E+00   0.106E+03 0.601E+02 -.108E+01   0.200E+00 0.549E+00 0.503E-01   -.206E-02 0.185E-02 -.183E-02
   -.110E+01 0.159E+02 0.904E+02   0.481E+00 -.158E+02 -.904E+02   -.251E+00 0.145E+00 -.941E+00   -.201E-02 0.296E-02 0.183E-02
   -.150E+01 -.582E+02 0.199E+02   0.195E+01 0.583E+02 -.200E+02   -.406E+00 0.423E+00 0.278E+00   -.119E-02 -.271E-02 0.151E-02
   -.107E+03 -.225E+02 0.195E+02   0.107E+03 0.216E+02 -.197E+02   0.119E+01 0.294E+00 -.303E+00   -.172E-02 -.377E-02 -.102E-02
   0.809E+01 -.374E+02 -.707E+02   -.805E+01 0.373E+02 0.716E+02   0.874E-01 0.927E-01 0.145E+00   -.812E-04 -.330E-03 -.566E-04
   -.311E+02 0.698E+02 0.908E+02   0.311E+02 -.700E+02 -.914E+02   0.549E+00 -.932E+00 -.461E+00   -.183E-03 0.724E-03 0.597E-03
   -.152E+02 0.622E+02 0.413E+02   0.155E+02 -.619E+02 -.415E+02   0.378E+00 -.290E+00 -.259E+00   0.323E-02 0.825E-03 0.464E-02
   0.742E+02 -.342E+01 -.398E+02   -.742E+02 0.334E+01 0.396E+02   -.551E+00 0.234E+00 0.667E+00   0.387E-02 -.336E-03 -.426E-02
   0.597E+02 0.697E+02 -.838E+02   -.600E+02 -.708E+02 0.835E+02   -.299E-01 -.251E+00 0.626E+00   0.965E-03 -.976E-04 0.312E-03
   0.106E+03 -.354E+01 0.131E+03   -.105E+03 0.374E+01 -.131E+03   -.914E+00 0.351E+00 -.817E+00   0.144E-03 0.468E-03 -.665E-03
   -.999E+01 0.592E+02 0.255E+01   0.973E+01 -.591E+02 -.189E+01   0.138E-02 -.889E+00 -.317E+00   -.175E-02 0.856E-03 0.385E-02
   -.855E+00 -.843E+02 0.434E+02   0.402E+00 0.846E+02 -.434E+02   0.177E+00 0.590E+00 -.387E+00   -.135E-02 -.112E-04 -.328E-02
   0.719E+02 0.310E+02 -.132E+02   -.734E+02 -.306E+02 0.135E+02   -.481E+00 0.100E+00 -.183E+00   0.143E-02 0.130E-02 -.643E-03
   -.479E+02 -.600E+02 0.252E+02   0.474E+02 0.603E+02 -.249E+02   0.430E+00 0.723E+00 0.115E+00   0.122E-02 0.190E-02 0.335E-03
   -.794E-03 -.155E+03 0.101E+03   -.715E-01 0.155E+03 -.103E+03   0.140E+00 0.114E+01 -.697E+00   -.766E-03 -.152E-02 0.521E-03
   0.129E+02 -.800E+02 -.171E+01   -.127E+02 0.804E+02 0.215E+01   -.160E+00 0.459E+00 -.225E+00   -.587E-03 -.231E-02 -.567E-03
   -.276E+02 0.493E+02 -.154E+02   0.268E+02 -.504E+02 0.158E+02   0.167E+00 -.339E+00 0.135E+00   0.560E-04 -.206E-02 -.121E-02
   -.161E+02 0.217E+02 0.574E+02   0.159E+02 -.217E+02 -.576E+02   -.237E+00 -.397E+00 -.460E+00   0.228E-03 -.112E-02 0.883E-03
   0.967E+02 0.128E+03 0.185E+02   -.976E+02 -.128E+03 -.179E+02   -.866E+00 -.152E+01 -.467E+00   -.102E-02 0.279E-02 -.939E-03
   -.749E+02 0.903E+02 0.510E+02   0.748E+02 -.909E+02 -.517E+02   0.420E+00 -.780E+00 -.116E+00   -.130E-02 0.181E-02 0.789E-03
   -.893E+02 0.252E+02 0.130E+02   0.895E+02 -.245E+02 -.129E+02   0.510E+00 -.428E+00 -.325E+00   -.245E-02 -.908E-03 -.678E-03
   -.370E+02 -.652E+02 0.852E+01   0.372E+02 0.648E+02 -.911E+01   0.154E+00 0.827E+00 0.158E+00   -.255E-02 -.104E-02 0.135E-03
   -.233E+02 -.244E+02 0.551E+02   0.238E+02 0.248E+02 -.552E+02   0.290E-02 -.338E-01 -.923E+00   0.989E-03 0.168E-02 0.231E-02
   -.453E+01 -.197E+02 0.646E+01   0.426E+01 0.203E+02 -.583E+01   0.309E+00 0.195E+00 0.608E-01   0.118E-02 0.816E-03 -.222E-02
   0.542E+02 -.740E+01 -.104E+03   -.546E+02 0.729E+01 0.104E+03   -.624E-01 0.108E+00 0.134E+01   0.177E-02 0.312E-03 0.959E-03
   0.280E+02 0.251E+02 0.161E+02   -.276E+02 -.244E+02 -.154E+02   0.429E-01 -.869E+00 -.177E+00   0.170E-02 0.110E-02 -.805E-03
   -.356E+02 -.780E+02 0.620E+01   0.357E+02 0.779E+02 -.526E+01   0.520E+00 0.833E+00 -.935E+00   0.189E-02 -.158E-02 0.339E-02
   0.698E+01 -.137E+02 0.188E+03   -.584E+01 0.134E+02 -.190E+03   -.127E+00 0.369E+00 -.103E+01   0.174E-02 -.137E-02 -.225E-02
   0.594E+02 -.290E+02 -.148E+02   -.592E+02 0.293E+02 0.155E+02   -.324E-01 0.196E+00 -.305E+00   0.505E-03 -.565E-03 0.980E-03
   -.320E+01 -.322E+02 0.336E+02   0.318E+01 0.330E+02 -.341E+02   0.621E+00 -.230E+00 0.546E-02   0.466E-03 0.196E-03 -.137E-02
   -.376E+02 0.119E+02 0.812E+01   0.382E+02 -.123E+02 -.949E+01   0.696E-01 -.619E-01 0.345E+00   -.108E-02 0.334E-03 0.696E-03
   0.787E+02 0.142E+03 0.127E+03   -.795E+02 -.142E+03 -.127E+03   -.418E+00 -.158E+01 -.984E+00   -.105E-02 0.132E-03 -.119E-02
   -.470E+02 0.133E+02 -.943E+02   0.461E+02 -.134E+02 0.936E+02   0.952E+00 -.525E+00 0.112E+01   0.481E-03 0.105E-03 0.375E-03
 -----------------------------------------------------------------------------------------------
   -.569E+00 -.290E+00 0.454E+00   0.711E-14 -.497E-13 0.199E-12   0.566E+00 0.289E+00 -.455E+00   0.274E-02 0.330E-03 0.935E-03
 
 
 POSITION                                       TOTAL-FORCE (eV/Angst)
 -----------------------------------------------------------------------------------
      3.07813      1.70396      1.12797         0.099705      0.450522      1.392650
      3.03439      2.04967      6.31542         0.591290     -0.706273      0.318433
      3.25188      7.48934      1.48832        -0.808365     -0.820500     -1.345045
      3.48531      7.31082      6.26957        -1.038753      0.271195      0.852535
      6.37592      1.61102      1.34280         0.011087      1.453871     -0.792822
      6.22160      1.88562      6.52358         0.251128     -0.140908     -0.953413
      6.40409      7.57108      1.16989        -0.009435     -1.424471      0.831383
      9.51583      1.78192      1.26775         0.224898      0.529298      0.384113
      9.43076      1.96761      6.36905         0.242794     -0.948614      0.073341
      9.37812      7.43040      1.31556         0.830728     -0.111636     -0.202437
      9.67953      7.20537      6.22558        -0.754003      1.051667      1.447413
     12.58198      2.07638      1.34032         0.565119     -1.302319     -0.250408
     12.48180      1.95940      6.42398         0.952266     -0.133344      0.295900
     12.68062      7.17365      1.20379        -0.595448      0.937230      0.870263
     12.69493      7.20706      6.29987         0.193409      1.073554      0.056278
      1.44106      4.51050      1.27508         1.170069      1.037969      0.202571
      1.38537      4.53516      6.50567         0.730782      0.430255     -0.262171
      1.39141     10.22599      1.21678         0.709877     -0.328913      0.628369
      1.48823      9.88997      6.37226         0.359362      0.585421      1.136406
      5.04930      4.60462      1.23093        -1.998963     -0.268573     -0.139142
      4.69764      4.83812      6.39649         0.686265     -1.058535     -0.365294
      4.92578     10.01859      1.03436        -1.674503      0.809551      0.907295
      4.71264     10.17167      6.14886        -0.012860      0.391667      1.191555
      7.77863      4.51645      1.19421         1.090562     -0.004351      0.661494
      8.16918      4.56496      6.54543        -1.289714      0.702019     -1.269486
      8.11463     10.35830      1.34871        -1.105722     -1.852725      0.805659
      7.93373     10.12997      6.19992        -0.602075      0.209023      1.243787
     11.02483      4.60356      1.32414        -0.505999      0.283184     -0.466306
     11.09969      4.57073      6.15660        -0.007809     -0.906508      1.866316
     10.89127     10.00507      1.33597         1.751073      0.437617      1.252972
     11.20428     10.26164      6.63336        -0.244604     -0.655922     -1.558259
      1.45680      0.75985      3.98396         1.390795      1.236528     -0.374203
      1.75354      0.83223      8.95785        -0.874241      0.279772     -0.909190
      1.65849      6.29381      3.86824         0.032448      0.512381      0.197224
      1.38046      6.58555      9.00024         1.302157     -0.577626     -0.558043
      4.67052      0.81836      3.59162         0.120590     -0.015302      1.038059
      4.67350      1.13444      9.00344         0.551426     -1.091422     -1.025467
      4.73529      6.32357      3.80256         0.626123     -0.023670     -0.391877
      4.92083      6.47250      8.86519        -0.455861      0.144764      0.488638
      7.98868      1.14502      3.86435        -0.346026     -1.276062      0.395823
      8.10902      0.77070      9.00433        -0.831492      0.555818     -0.794872
      7.88514      6.57467      3.79820        -0.257284     -0.735718      0.347355
      8.03216      6.24830      8.99927        -0.269600      0.855578     -0.399314
     11.40543      0.85538      3.86473        -1.926964      0.492017      0.030329
     11.27050      0.82321      9.02902        -0.053965      1.093711      0.450390
     11.08964      6.16786      3.92278         0.064744      1.696992     -2.238423
     11.05422      6.20909      8.85758         0.023514      0.870381      0.211138
      0.16739      3.80325      3.79769        -0.652884     -1.376481      0.482774
      0.01138      3.73221      9.07310        -0.448369     -0.454092     -0.617887
      0.15007      9.30097      3.78228        -1.768720     -1.952757      0.108193
     12.68508      9.31803      9.14919         0.365142     -1.370316     -0.879584
      3.12915      3.56907      3.75959         0.663957      0.291149     -0.245124
      3.06964      3.74582      9.03485         0.428352      0.496696     -0.426575
      2.99555      9.12945      3.94516         0.575911      0.412557     -1.087817
      3.21532      9.01492      8.83581         0.041912      0.750270      0.689887
      6.40910      3.65745      3.74445        -0.519954      0.010505      0.871837
      6.25892      3.69032      8.80956         0.407896     -0.189997      0.469115
      6.11754      9.04536      3.75307         0.630699      0.773900      0.010998
      6.49621      9.22259      9.17225         1.020779      0.083988     -3.218474
      9.60755      3.54265      3.70564         0.231500      0.513196      0.417647
      9.50142      3.43019      9.05984         0.603361      0.532705     -0.502980
      9.55290      9.26639      4.07395         0.614847     -0.393095     -1.020657
      9.76602      9.30490      9.07223        -1.250336     -1.536364     -0.728643
      6.49314      7.55199      6.29955         0.147383     -0.600449      0.395775
 -----------------------------------------------------------------------------------
    total drift:                               -0.000346     -0.000027      0.000423


--------------------------------------------------------------------------------------------------------



  FREE ENERGIE OF THE ION-ELECTRON SYSTEM (eV)
  ---------------------------------------------------
  free  energy   TOTEN  =      -571.51547122 eV

  energy  without entropy=     -571.41353116  energy(sigma->0) =     -571.46450119
 


--------------------------------------------------------------------------------------------------------


    POTLOK:  cpu time      0.4367: real time      0.4368


--------------------------------------------------------------------------------------------------------


     LOOP+:  cpu time   9363.5263: real time   9368.6231
    4ORBIT:  cpu time      0.0000: real time      0.0000



 total charge

# of ion       s       p       d       tot
------------------------------------------
    1        2.243   5.953   1.728   9.924
    2        2.231   5.952   1.659   9.842
    3        2.227   5.955   1.639   9.822
    4        2.245   5.953   1.772   9.970
    5        2.244   5.960   1.727   9.931
    6        2.230   5.952   1.656   9.839
    7        2.250   5.955   1.807  10.013
    8        2.256   5.959   1.783   9.999
    9        2.242   5.954   1.727   9.923
   10        2.236   5.954   1.678   9.867
   11        2.247   5.959   1.714   9.920
   12        2.242   5.953   1.737   9.933
   13        2.243   5.953   1.725   9.920
   14        2.232   5.954   1.662   9.848
   15        2.236   5.952   1.686   9.873
   16        2.251   5.958   1.744   9.952
   17        2.243   5.957   1.715   9.915
   18        2.232   5.953   1.697   9.882
   19        2.238   5.959   1.684   9.881
   20        2.234   5.950   1.711   9.895
   21        2.235   5.950   1.714   9.899
   22        2.249   5.953   1.799  10.001
   23        2.233   5.957   1.638   9.828
   24        2.243   5.952   1.754   9.949
   25        2.236   5.954   1.699   9.890
   26        2.257   5.959   1.814  10.030
   27        2.236   5.952   1.667   9.855
   28        2.246   5.962   1.720   9.928
   29        2.261   5.957   1.830  10.048
   30        2.251   5.955   1.784   9.991
   31        2.236   5.958   1.698   9.891
   32        2.247   5.954   1.760   9.961
   33        2.238   5.956   1.705   9.898
   34        2.243   5.959   1.700   9.902
   35        2.234   5.954   1.680   9.869
   36        2.234   5.954   1.664   9.852
   37        2.246   5.954   1.724   9.924
   38        2.247   5.958   1.737   9.942
   39        2.237   5.957   1.673   9.867
   40        2.241   5.955   1.730   9.926
   41        2.242   5.956   1.715   9.913
   42        2.234   5.957   1.655   9.847
   43        2.238   5.955   1.690   9.882
   44        2.238   5.954   1.728   9.920
   45        2.249   5.957   1.763   9.969
   46        2.252   5.956   1.770   9.978
   47        2.235   5.954   1.680   9.869
   48        2.250   5.961   1.773   9.984
   49        2.243   5.957   1.730   9.930
   50        2.246   5.953   1.753   9.953
   51        2.252   5.958   1.759   9.969
   52        2.235   5.955   1.671   9.861
   53        2.240   5.959   1.660   9.859
   54        2.254   5.957   1.779   9.989
   55        2.233   5.952   1.653   9.838
   56        2.239   5.953   1.676   9.868
   57        2.247   5.958   1.721   9.926
   58        2.238   5.963   1.685   9.885
   59        2.239   5.953   1.733   9.925
   60        2.245   5.954   1.738   9.937
   61        2.242   5.958   1.714   9.915
   62        2.232   5.952   1.680   9.864
   63        2.246   5.954   1.753   9.953
   64        2.212   5.969   2.399  10.579
--------------------------------------------------
tot        143.432 381.161 110.622 635.215
 

 total amount of memory used by VASP MPI-rank0   589702. kBytes
=======================================================================

   base      :      30000. kBytes
   nonl-proj :     126896. kBytes
   fftplans  :      28444. kBytes
   grid      :      15914. kBytes
   one-center:        248. kBytes
   wavefun   :     388200. kBytes
 
  
  
 General timing and accounting informations for this job:
 ========================================================
  
                  Total CPU time used (sec):     9415.249
                            User time (sec):     9315.552
                          System time (sec):       99.698
                         Elapsed time (sec):     9421.092
  
                   Maximum memory used (kb):     1109000.
                   Average memory used (kb):          N/A
  
                          Minor page faults:       210774
                          Major page faults:           15
                 Voluntary context switches:        13246
